Sandwich Zr1010 ZrO2 Zr1010                                        
1.0
        5.5967998505         0.0000000000         0.0000000000
        0.0000000000         5.1479001045         0.0000000000
        0.0000000000         0.0000000000        50.7636718750
    O   Zr
   64   70
Direct
     0.000000000         0.249999985         0.579114497
     0.000000000         0.749999940         0.579114497
     0.499999970         0.249999985         0.579114497
     0.499999970         0.749999940         0.579114497
     0.000000000         0.249999985         0.682107866
     0.000000000         0.749999940         0.682107866
     0.499999970         0.249999985         0.682107866
     0.499999970         0.749999940         0.682107866
     0.000000000         0.249999985         0.785101056
     0.000000000         0.749999940         0.785101056
     0.499999970         0.249999985         0.785101056
     0.499999970         0.749999940         0.785101056
     0.000000000         0.249999985         0.888094366
     0.000000000         0.749999940         0.888094366
     0.499999970         0.249999985         0.888094366
     0.499999970         0.749999940         0.888094366
     0.000000000         0.249999985         0.630611181
     0.000000000         0.749999940         0.630611181
     0.499999970         0.249999985         0.630611181
     0.499999970         0.749999940         0.630611181
     0.000000000         0.249999985         0.733604431
     0.000000000         0.749999940         0.733604431
     0.499999970         0.249999985         0.733604431
     0.499999970         0.749999940         0.733604431
     0.000000000         0.249999985         0.836597681
     0.000000000         0.749999940         0.836597681
     0.499999970         0.249999985         0.836597681
     0.499999970         0.749999940         0.836597681
     0.000000000         0.249999985         0.939590931
     0.000000000         0.749999940         0.939590931
     0.499999970         0.249999985         0.939590931
     0.499999970         0.749999940         0.939590931
     0.249999985         0.000000000         0.569639206
     0.249999985         0.499999970         0.569639206
     0.749999940         0.000000000         0.569639206
     0.749999940         0.499999970         0.569639206
     0.249999985         0.000000000         0.672632456
     0.249999985         0.499999970         0.672632456
     0.749999940         0.000000000         0.672632456
     0.749999940         0.499999970         0.672632456
     0.249999985         0.000000000         0.775625646
     0.249999985         0.499999970         0.775625646
     0.749999940         0.000000000         0.775625646
     0.749999940         0.499999970         0.775625646
     0.249999985         0.000000000         0.878619015
     0.249999985         0.499999970         0.878619015
     0.749999940         0.000000000         0.878619015
     0.749999940         0.499999970         0.878619015
     0.249999985         0.000000000         0.621135831
     0.249999985         0.499999970         0.621135831
     0.749999940         0.000000000         0.621135831
     0.749999940         0.499999970         0.621135831
     0.249999985         0.000000000         0.724129081
     0.249999985         0.499999970         0.724129081
     0.749999940         0.000000000         0.724129081
     0.749999940         0.499999970         0.724129081
     0.249999985         0.000000000         0.827122271
     0.249999985         0.499999970         0.827122271
     0.749999940         0.000000000         0.827122271
     0.749999940         0.499999970         0.827122271
     0.249999985         0.000000000         0.930115581
     0.249999985         0.499999970         0.930115581
     0.749999940         0.000000000         0.930115581
     0.749999940         0.499999970         0.930115581
     0.166665927         0.749999881         0.000000000
     0.833329737         0.249999985         0.000000000
     0.666663766         0.749999881         0.031826891
     0.333331883         0.249999985         0.031826895
     0.166665927         0.749999881         0.063653782
     0.833329737         0.249999985         0.063653782
     0.666663766         0.749999881         0.095480680
     0.333331883         0.249999985         0.095480680
     0.166665927         0.749999881         0.127307564
     0.833329737         0.249999985         0.127307564
     0.666663766         0.749999881         0.159134462
     0.333331883         0.249999985         0.159134462
     0.166665927         0.749999881         0.190961361
     0.833329737         0.249999985         0.190961361
     0.666663766         0.749999881         0.222788259
     0.333331883         0.249999985         0.222788259
     0.166665927         0.749999881         0.254615128
     0.833329737         0.249999985         0.254615128
     0.666663766         0.749999881         0.286442071
     0.333331883         0.249999985         0.286442071
     0.166665927         0.749999881         0.318268925
     0.833329737         0.249999985         0.318268925
     0.666663766         0.749999881         0.350095809
     0.333331883         0.249999985         0.350095809
     0.166665927         0.749999881         0.381922722
     0.833329737         0.249999985         0.381922722
     0.666663766         0.749999881         0.413749665
     0.333331883         0.249999985         0.413749665
     0.166665927         0.749999881         0.445576519
     0.833329737         0.249999985         0.445576519
     0.666663766         0.749999881         0.477403402
     0.333331883         0.249999985         0.477403402
     0.166665927         0.749999881         0.509230256
     0.833329737         0.249999985         0.509230256
     0.000000000         0.000000000         0.548628569
     0.000000000         0.499999970         0.548628569
     0.499999970         0.000000000         0.548628569
     0.499999970         0.499999970         0.548628569
     0.000000000         0.000000000         0.651621759
     0.000000000         0.499999970         0.651621759
     0.499999970         0.000000000         0.651621759
     0.499999970         0.499999970         0.651621759
     0.000000000         0.000000000         0.754615068
     0.000000000         0.499999970         0.754615068
     0.499999970         0.000000000         0.754615068
     0.499999970         0.499999970         0.754615068
     0.000000000         0.000000000         0.857608259
     0.000000000         0.499999970         0.857608259
     0.499999970         0.000000000         0.857608259
     0.499999970         0.499999970         0.857608259
     0.000000000         0.000000000         0.960601568
     0.000000000         0.499999970         0.960601568
     0.499999970         0.000000000         0.960601568
     0.499999970         0.499999970         0.960601568
     0.249999985         0.249999985         0.600125194
     0.249999985         0.749999940         0.600125194
     0.749999940         0.249999985         0.600125194
     0.749999940         0.749999940         0.600125194
     0.249999985         0.249999985         0.703118443
     0.249999985         0.749999940         0.703118443
     0.749999940         0.249999985         0.703118443
     0.749999940         0.749999940         0.703118443
     0.249999985         0.249999985         0.806111693
     0.249999985         0.749999940         0.806111693
     0.749999940         0.249999985         0.806111693
     0.749999940         0.749999940         0.806111693
     0.249999985         0.249999985         0.909104943
     0.249999985         0.749999940         0.909104943
     0.749999940         0.249999985         0.909104943
     0.749999940         0.749999940         0.909104943
