Sandwich Zr1010 ZrO2 Zr1010                                        
1.0
        5.5967998505         0.0000000000         0.0000000000
        0.0000000000         5.1479001045         0.0000000000
        0.0000000000         0.0000000000        50.76367
    O   Zr
   64  72
Cartesian
     0.000000000         1.286975026        29.397981908
     0.000000000         3.860925078        29.397981908
     2.798399925         1.286975026        29.397981908
     2.798399925         3.860925078        29.397981908
     0.000000000         1.286975026        34.626298906
     0.000000000         3.860925078        34.626298906
     2.798399925         1.286975026        34.626298906
     2.798399925         3.860925078        34.626298906
     0.000000000         1.286975026        39.854615905
     0.000000000         3.860925078        39.854615905
     2.798399925         1.286975026        39.854615905
     2.798399925         3.860925078        39.854615905
     0.000000000         1.286975026        45.082930524
     0.000000000         3.860925078        45.082930524
     2.798399925         1.286975026        45.082930524
     2.798399925         3.860925078        45.082930524
     0.000000000         1.286975026        32.012142787
     0.000000000         3.860925078        32.012142787
     2.798399925         1.286975026        32.012142787
     2.798399925         3.860925078        32.012142787
     0.000000000         1.286975026        37.240457406
     0.000000000         3.860925078        37.240457406
     2.798399925         1.286975026        37.240457406
     2.798399925         3.860925078        37.240457406
     0.000000000         1.286975026        42.468774404
     0.000000000         3.860925078        42.468774404
     2.798399925         1.286975026        42.468774404
     2.798399925         3.860925078        42.468774404
     0.000000000         1.286975026        47.697086643
     0.000000000         3.860925078        47.697086643
     2.798399925         1.286975026        47.697086643
     2.798399925         3.860925078        47.697086643
     1.399199963         0.000000000        28.916978895
     1.399199963         2.573950052        28.916978895
     4.197599888         0.000000000        28.916978895
     4.197599888         2.573950052        28.916978895
     1.399199963         0.000000000        34.145295894
     1.399199963         2.573950052        34.145295894
     4.197599888         0.000000000        34.145295894
     4.197599888         2.573950052        34.145295894
     1.399199963         0.000000000        39.373608133
     1.399199963         2.573950052        39.373608133
     4.197599888         0.000000000        39.373608133
     4.197599888         2.573950052        39.373608133
     1.399199963         0.000000000        44.601927511
     1.399199963         2.573950052        44.601927511
     4.197599888         0.000000000        44.601927511
     4.197599888         2.573950052        44.601927511
     1.399199963         0.000000000        31.531137395
     1.399199963         2.573950052        31.531137395
     4.197599888         0.000000000        31.531137395
     4.197599888         2.573950052        31.531137395
     1.399199963         0.000000000        36.759454393
     1.399199963         2.573950052        36.759454393
     4.197599888         0.000000000        36.759454393
     4.197599888         2.573950052        36.759454393
     1.399199963         0.000000000        41.987766632
     1.399199963         2.573950052        41.987766632
     4.197599888         0.000000000        41.987766632
     4.197599888         2.573950052        41.987766632
     1.399199963         0.000000000        47.216083631
     1.399199963         2.573950052        47.216083631
     4.197599888         0.000000000        47.216083631
     4.197599888         2.573950052        47.216083631
     0.932795916         3.860924772         0.000000000
     4.663980082         1.286975026         0.000000000
     3.731183999         3.860924772         1.615650054
     1.865591999         1.286975026         1.615650203
     0.932795916         3.860924772         3.231300108
     4.663980082         1.286975026         3.231300108
     3.731183999         3.860924772         4.846950163
     1.865591999         1.286975026         4.846950163
     0.932795916         3.860924772         6.462600217
     4.663980082         1.286975026         6.462600217
     3.731183999         3.860924772         8.078249973
     1.865591999         1.286975026         8.078249973
     0.932795916         3.860924772         9.693900325
     4.663980082         1.286975026         9.693900325
     3.731183999         3.860924772        11.309550677
     1.865591999         1.286975026        11.309550677
     0.932795916         3.860924772        12.925200433
     4.663980082         1.286975026        12.925200433
     3.731183999         3.860924772        14.540851380
     1.865591999         1.286975026        14.540851380
     0.932795916         3.860924772        16.156499947
     4.663980082         1.286975026        16.156499947
     3.731183999         3.860924772        17.772150893
     1.865591999         1.286975026        17.772150893
     0.932795916         3.860924772        19.387800650
     4.663980082         1.286975026        19.387800650
     3.731183999         3.860924772        21.003451597
     1.865591999         1.286975026        21.003451597
     0.932795916         3.860924772        22.619101353
     4.663980082         1.286975026        22.619101353
     3.731183999         3.860924772        24.234751110
     1.865591999         1.286975026        24.234751110
     0.932795916         3.860924772        25.850400867
     4.663980082         1.286975026        25.850400867
     0.000000000         0.000000000        27.850402342
     0.000000000         2.573950052        27.850402342
     2.798399925         0.000000000        27.850402342
     2.798399925         2.573950052        27.850402342
     0.000000000         0.000000000        33.078716961
     0.000000000         2.573950052        33.078716961
     2.798399925         0.000000000        33.078716961
     2.798399925         2.573950052        33.078716961
     0.000000000         0.000000000        38.307033959
     0.000000000         2.573950052        38.307033959
     2.798399925         0.000000000        38.307033959
     2.798399925         2.573950052        38.307033959
     0.000000000         0.000000000        43.535348578
     0.000000000         2.573950052        43.535348578
     2.798399925         0.000000000        43.535348578
     2.798399925         2.573950052        43.535348578
     0.000000000         0.000000000        48.763665576
     0.000000000         2.573950052        48.763665576
     2.798399925         0.000000000        48.763665576
     2.798399925         2.573950052        48.763665576
     1.399199963         1.286975026        30.464560841
     1.399199963         3.860925078        30.464560841
     4.197599888         1.286975026        30.464560841
     4.197599888         3.860925078        30.464560841
     1.399199963         1.286975026        35.692875460
     1.399199963         3.860925078        35.692875460
     4.197599888         1.286975026        35.692875460
     4.197599888         3.860925078        35.692875460
     1.399199963         1.286975026        40.921192458
     1.399199963         3.860925078        40.921192458
     4.197599888         1.286975026        40.921192458
     4.197599888         3.860925078        40.921192458
     1.399199963         1.286975026        46.149504698
     1.399199963         3.860925078        46.149504698
     4.197599888         1.286975026        46.149504698
     4.197599888         3.860925078        46.149504698
     0.932795916         3.860924772        50.763667051
     4.663980082         1.286975026        50.763667051
