Sandwich Zr1010 ZrO2 Zr1010             
   1.00000000000000     
     5.5967998505000001    0.0000000000000000    0.0000000000000000
     0.0000000000000000    5.1479001044999997    0.0000000000000000
     0.0000000000000000    0.0000000000000000   50.7636718750000000
   O    Zr
    64    70
Direct
  0.0211316880795510  0.2499999850000023  0.5134796685266086
 -0.0211316880795511  0.7499999400000021  0.5134796685266086
  0.6938432477677602  0.2499999850000023  0.5354807382606649
  0.3061566922322345  0.7499999400000021  0.5354807382606649
  0.1803324963135897  0.2499999850000023  0.6309547170579418
  0.8196675036864099  0.7499999400000021  0.6309547170579418
  0.7804167153431020  0.2499999850000023  0.6307793759834573
  0.2195832246568930  0.7499999400000021  0.6307793759834573
  0.8186208713390624  0.2499999850000023  0.8210994551225042
  0.1813791286609378  0.7499999400000021  0.8210994551225042
  0.4886343079196657  0.2499999850000023  0.7953820053719192
  0.5113656320803298  0.7499999400000021  0.7953820053719192
  0.7894117609481159  0.2499999850000023  0.9090066670820370
  0.2105882390518840  0.7499999400000021  0.9090066670820370
  0.5323567025796665  0.2499999850000023  0.9422834084301028
  0.4676432374203284  0.7499999400000021  0.9422834084301028
 -0.0374688518645171  0.2499999850000023  0.5760694616673652
  0.0374688518645172  0.7499999400000021  0.5760694616673652
  0.2791792271579133  0.2499999850000023  0.5541739587005816
  0.7208207128420816  0.7499999400000021  0.5541739587005816
  0.0032319405247808  0.2499999850000023  0.7107410877753830
 -0.0032319405247810  0.7499999400000021  0.7107410877753830
  0.6598854249639147  0.2499999850000023  0.6944027458157273
  0.3401145150360874  0.7499999400000021  0.6944027458157273
  0.9863711475076086  0.2499999850000023  0.8615269707854681
  0.0136288524923919  0.7499999400000021  0.8615269707854681
  0.3271670169143920  0.2499999850000023  0.8355741974709365
  0.6728329230856032  0.7499999400000021  0.8355741974709365
  0.0112409779628660  0.2499999850000023  0.9889222442029083
  0.9887590220371340  0.7499999400000021  0.9889222442029083
  0.6556694773002049  0.2499999850000023  0.9815931525471669
  0.3443304626997909  0.7499999400000021  0.9815931525471669
  0.3231409304204702 -0.0405915664669958  0.4933612349765042
  0.3231409304204702  0.5405915364669936  0.4933612349765042
  0.6768589945795346  0.0405915664669960  0.4933612349765042
  0.6768589945795346  0.4594084035330017  0.4933612349765042
  0.2743106932690045  0.0494008912966569  0.6673226533370211
  0.2743106932690045  0.4505990787033409  0.6673226533370211
  0.7256892317310002  0.9505991087033427  0.6673226533370211
  0.7256892317310002  0.5494008612966548  0.6673226533370211
  0.1765569432803250  0.9682075786776161  0.7789088836476171
  0.1765569432803250  0.5317923913223814  0.7789088836476171
  0.8234429817196793  0.0317924213223836  0.7789088836476171
  0.8234429817196793  0.4682075486776140  0.7789088836476171
  0.1881903227624175  0.0687790516116484  0.9358411164266688
  0.1881903227624175  0.4312209183883491  0.9358411164266688
  0.8118096022375871  0.9312209483883518  0.9358411164266688
  0.8118096022375871  0.5687790216116458  0.9358411164266688
  0.3286191187314952  0.0417159209182658  0.5954857998147786
  0.3286191187314952  0.4582840490817245  0.5954857998147786
  0.6713808062685097 -0.0417159209182658  0.5954857998147786
  0.6713808062685097  0.5417158909182708  0.5954857998147786
  0.3184436264053754  0.9922372027858234  0.7330598627681096
  0.3184436264053754  0.5077627672141741  0.7330598627681096
  0.6815562985946286  0.0077627972141764  0.7330598627681096
  0.6815562985946286  0.4922371727858212  0.7330598627681096
  0.3239273422944593  0.0464626663593283  0.8780606813204500
  0.3239273422944593  0.4535373036406694  0.8780606813204500
  0.6760725827055450  0.9535373336406716  0.8780606813204500
  0.6760725827055450  0.5464626363593259  0.8780606813204500
  0.3172964841035448  0.0370759120631198  0.0107521183816742
  0.3172964841035448  0.4629240579368775  0.0107521183816742
  0.6827034408964596  0.9629240879368801  0.0107521183816742
  0.6827034408964596  0.5370758820631174  0.0107521183816742
  0.0932896486441299  0.7499998810000008  0.0668065220333706
  0.9067060153558667  0.2499999850000023  0.0668065220333706
  0.6451555158573856  0.7499998810000008  0.0873742872134766
  0.3548401331426139  0.2499999850000023  0.0873742912134770
  0.1476489975217155  0.7499998810000008  0.1120957197596598
  0.8523466664782808  0.2499999850000023  0.1120957197596598
  0.6457001381932500  0.7499998810000008  0.1343887990503429
  0.3542955108067490  0.2499999850000023  0.1343887990503429
  0.1404903232329368  0.7499998810000008  0.1585088459885900
  0.8595053407670596  0.2499999850000023  0.1585088459885900
  0.6333053706727810  0.7499998810000008  0.1816129765119376
  0.3666902783272181  0.2499999850000023  0.1816129765119376
  0.1311697327900463  0.7499998810000008  0.2051397949814187
  0.8688259312099499  0.2499999850000023  0.2051397949814187
  0.6289035167703331  0.7499998810000008  0.2283896597059767
  0.3710921322296653  0.2499999850000023  0.2283896597059767
  0.1288101487800431  0.7499998810000008  0.2519183724165242
  0.8711855152199537  0.2499999850000023  0.2519183724165242
  0.6294770671299498  0.7499998810000008  0.2752981382727203
  0.3705185818700489  0.2499999850000023  0.2752981382727203
  0.1311676355753070  0.7499998810000008  0.2987392465585914
  0.8688280284246899  0.2499999850000023  0.2987392465585914
  0.6347549123987971  0.7499998810000008  0.3221604414857748
  0.3652407366012019  0.2499999850000023  0.3221604414857748
  0.1411280957702432  0.7499998810000008  0.3454774708009878
  0.8588675682297537  0.2499999850000023  0.3454774708009878
  0.6475645855270007  0.7499998810000008  0.3692210530410016
  0.3524310634729986  0.2499999850000023  0.3692210530410016
  0.1498191964202474  0.7499998810000008  0.3923352827404238
  0.8501764675797495  0.2499999850000023  0.3923352827404238
  0.6415209469337654  0.7499998810000008  0.4156370828243682
  0.3584747020662337  0.2499999850000023  0.4156370828243682
  0.0782706870978048  0.7499998810000008  0.4379329050333132
  0.9217249769021919  0.2499999850000023  0.4379329050333132
  0.0000000000000000  0.0000000000000000  0.4837575505390793
  0.0000000000000000  0.4999999699999975  0.4837575505390793
  0.4999999699999975  0.0000000000000000  0.4594977732911311
  0.4999999699999975  0.4999999699999975  0.4594977732911311
  0.0000000000000000  0.0000000000000000  0.6064067248766472
  0.0000000000000000  0.4999999699999975  0.6064067248766472
  0.4999999699999975  0.0000000000000000  0.6330298505987993
  0.4999999699999975  0.4999999699999975  0.6330298505987993
  0.0000000000000000  0.0000000000000000  0.7440862038167080
  0.0000000000000000  0.4999999699999975  0.7440862038167080
  0.4999999699999975  0.0000000000000000  0.7671556580622468
  0.4999999699999975  0.4999999699999975  0.7671556580622468
  0.0000000000000000  0.0000000000000000  0.8902965286851566
  0.0000000000000000  0.4999999699999975  0.8902965286851566
  0.4999999699999975  0.0000000000000000  0.9127916342793768
  0.4999999699999975  0.4999999699999975  0.9127916342793768
  0.0000000000000000  0.0000000000000000  0.0218273511811185
  0.0000000000000000  0.4999999699999975  0.0218273511811185
  0.4999999699999975  0.0000000000000000  0.0427335978783490
  0.4999999699999975  0.4999999699999975  0.0427335978783490
  0.3779824993938660  0.2499999850000023  0.5189543624568245
  0.3967737638507977  0.7499999400000021  0.5722498419027964
  0.6032261611492066  0.2499999850000023  0.5722498419027964
  0.6220174256061390  0.7499999400000021  0.5189543624568245
  0.3506400862750974  0.2499999850000023  0.7035463839716035
  0.0752738368083865  0.7499999400000021  0.6686759205111186
  0.9247260881916178  0.2499999850000023  0.6686759205111186
  0.6493598387249070  0.7499999400000021  0.7035463839716035
  0.1321024773128820  0.2499999850000023  0.8053271208929255
  0.3679109093734517  0.7499999400000021  0.8529851016757279
  0.6320890156265526  0.2499999850000023  0.8529851016757278
  0.8678974476871227  0.7499999400000021  0.8053271208929255
  0.3326745743201890  0.2499999850000023  0.9750721553418438
  0.1169758869177755  0.7499999400000021  0.9507257654736710
  0.8830240380822290  0.2499999850000023  0.9507257654736710
  0.6673253506798158  0.7499999400000021  0.9750721553418438
 
  0.00000000E+00  0.00000000E+00  0.00000000E+00
  0.00000000E+00  0.00000000E+00  0.00000000E+00
  0.00000000E+00  0.00000000E+00  0.00000000E+00
  0.00000000E+00  0.00000000E+00  0.00000000E+00
  0.00000000E+00  0.00000000E+00  0.00000000E+00
  0.00000000E+00  0.00000000E+00  0.00000000E+00
  0.00000000E+00  0.00000000E+00  0.00000000E+00
  0.00000000E+00  0.00000000E+00  0.00000000E+00
  0.00000000E+00  0.00000000E+00  0.00000000E+00
  0.00000000E+00  0.00000000E+00  0.00000000E+00
  0.00000000E+00  0.00000000E+00  0.00000000E+00
  0.00000000E+00  0.00000000E+00  0.00000000E+00
  0.00000000E+00  0.00000000E+00  0.00000000E+00
  0.00000000E+00  0.00000000E+00  0.00000000E+00
  0.00000000E+00  0.00000000E+00  0.00000000E+00
  0.00000000E+00  0.00000000E+00  0.00000000E+00
  0.00000000E+00  0.00000000E+00  0.00000000E+00
  0.00000000E+00  0.00000000E+00  0.00000000E+00
  0.00000000E+00  0.00000000E+00  0.00000000E+00
  0.00000000E+00  0.00000000E+00  0.00000000E+00
  0.00000000E+00  0.00000000E+00  0.00000000E+00
  0.00000000E+00  0.00000000E+00  0.00000000E+00
  0.00000000E+00  0.00000000E+00  0.00000000E+00
  0.00000000E+00  0.00000000E+00  0.00000000E+00
  0.00000000E+00  0.00000000E+00  0.00000000E+00
  0.00000000E+00  0.00000000E+00  0.00000000E+00
  0.00000000E+00  0.00000000E+00  0.00000000E+00
  0.00000000E+00  0.00000000E+00  0.00000000E+00
  0.00000000E+00  0.00000000E+00  0.00000000E+00
  0.00000000E+00  0.00000000E+00  0.00000000E+00
  0.00000000E+00  0.00000000E+00  0.00000000E+00
  0.00000000E+00  0.00000000E+00  0.00000000E+00
  0.00000000E+00  0.00000000E+00  0.00000000E+00
  0.00000000E+00  0.00000000E+00  0.00000000E+00
  0.00000000E+00  0.00000000E+00  0.00000000E+00
  0.00000000E+00  0.00000000E+00  0.00000000E+00
  0.00000000E+00  0.00000000E+00  0.00000000E+00
  0.00000000E+00  0.00000000E+00  0.00000000E+00
  0.00000000E+00  0.00000000E+00  0.00000000E+00
  0.00000000E+00  0.00000000E+00  0.00000000E+00
  0.00000000E+00  0.00000000E+00  0.00000000E+00
  0.00000000E+00  0.00000000E+00  0.00000000E+00
  0.00000000E+00  0.00000000E+00  0.00000000E+00
  0.00000000E+00  0.00000000E+00  0.00000000E+00
  0.00000000E+00  0.00000000E+00  0.00000000E+00
  0.00000000E+00  0.00000000E+00  0.00000000E+00
  0.00000000E+00  0.00000000E+00  0.00000000E+00
  0.00000000E+00  0.00000000E+00  0.00000000E+00
  0.00000000E+00  0.00000000E+00  0.00000000E+00
  0.00000000E+00  0.00000000E+00  0.00000000E+00
  0.00000000E+00  0.00000000E+00  0.00000000E+00
  0.00000000E+00  0.00000000E+00  0.00000000E+00
  0.00000000E+00  0.00000000E+00  0.00000000E+00
  0.00000000E+00  0.00000000E+00  0.00000000E+00
  0.00000000E+00  0.00000000E+00  0.00000000E+00
  0.00000000E+00  0.00000000E+00  0.00000000E+00
  0.00000000E+00  0.00000000E+00  0.00000000E+00
  0.00000000E+00  0.00000000E+00  0.00000000E+00
  0.00000000E+00  0.00000000E+00  0.00000000E+00
  0.00000000E+00  0.00000000E+00  0.00000000E+00
  0.00000000E+00  0.00000000E+00  0.00000000E+00
  0.00000000E+00  0.00000000E+00  0.00000000E+00
  0.00000000E+00  0.00000000E+00  0.00000000E+00
  0.00000000E+00  0.00000000E+00  0.00000000E+00
  0.00000000E+00  0.00000000E+00  0.00000000E+00
  0.00000000E+00  0.00000000E+00  0.00000000E+00
  0.00000000E+00  0.00000000E+00  0.00000000E+00
  0.00000000E+00  0.00000000E+00  0.00000000E+00
  0.00000000E+00  0.00000000E+00  0.00000000E+00
  0.00000000E+00  0.00000000E+00  0.00000000E+00
  0.00000000E+00  0.00000000E+00  0.00000000E+00
  0.00000000E+00  0.00000000E+00  0.00000000E+00
  0.00000000E+00  0.00000000E+00  0.00000000E+00
  0.00000000E+00  0.00000000E+00  0.00000000E+00
  0.00000000E+00  0.00000000E+00  0.00000000E+00
  0.00000000E+00  0.00000000E+00  0.00000000E+00
  0.00000000E+00  0.00000000E+00  0.00000000E+00
  0.00000000E+00  0.00000000E+00  0.00000000E+00
  0.00000000E+00  0.00000000E+00  0.00000000E+00
  0.00000000E+00  0.00000000E+00  0.00000000E+00
  0.00000000E+00  0.00000000E+00  0.00000000E+00
  0.00000000E+00  0.00000000E+00  0.00000000E+00
  0.00000000E+00  0.00000000E+00  0.00000000E+00
  0.00000000E+00  0.00000000E+00  0.00000000E+00
  0.00000000E+00  0.00000000E+00  0.00000000E+00
  0.00000000E+00  0.00000000E+00  0.00000000E+00
  0.00000000E+00  0.00000000E+00  0.00000000E+00
  0.00000000E+00  0.00000000E+00  0.00000000E+00
  0.00000000E+00  0.00000000E+00  0.00000000E+00
  0.00000000E+00  0.00000000E+00  0.00000000E+00
  0.00000000E+00  0.00000000E+00  0.00000000E+00
  0.00000000E+00  0.00000000E+00  0.00000000E+00
  0.00000000E+00  0.00000000E+00  0.00000000E+00
  0.00000000E+00  0.00000000E+00  0.00000000E+00
  0.00000000E+00  0.00000000E+00  0.00000000E+00
  0.00000000E+00  0.00000000E+00  0.00000000E+00
  0.00000000E+00  0.00000000E+00  0.00000000E+00
  0.00000000E+00  0.00000000E+00  0.00000000E+00
  0.00000000E+00  0.00000000E+00  0.00000000E+00
  0.00000000E+00  0.00000000E+00  0.00000000E+00
  0.00000000E+00  0.00000000E+00  0.00000000E+00
  0.00000000E+00  0.00000000E+00  0.00000000E+00
  0.00000000E+00  0.00000000E+00  0.00000000E+00
  0.00000000E+00  0.00000000E+00  0.00000000E+00
  0.00000000E+00  0.00000000E+00  0.00000000E+00
  0.00000000E+00  0.00000000E+00  0.00000000E+00
  0.00000000E+00  0.00000000E+00  0.00000000E+00
  0.00000000E+00  0.00000000E+00  0.00000000E+00
  0.00000000E+00  0.00000000E+00  0.00000000E+00
  0.00000000E+00  0.00000000E+00  0.00000000E+00
  0.00000000E+00  0.00000000E+00  0.00000000E+00
  0.00000000E+00  0.00000000E+00  0.00000000E+00
  0.00000000E+00  0.00000000E+00  0.00000000E+00
  0.00000000E+00  0.00000000E+00  0.00000000E+00
  0.00000000E+00  0.00000000E+00  0.00000000E+00
  0.00000000E+00  0.00000000E+00  0.00000000E+00
  0.00000000E+00  0.00000000E+00  0.00000000E+00
  0.00000000E+00  0.00000000E+00  0.00000000E+00
  0.00000000E+00  0.00000000E+00  0.00000000E+00
  0.00000000E+00  0.00000000E+00  0.00000000E+00
  0.00000000E+00  0.00000000E+00  0.00000000E+00
  0.00000000E+00  0.00000000E+00  0.00000000E+00
  0.00000000E+00  0.00000000E+00  0.00000000E+00
  0.00000000E+00  0.00000000E+00  0.00000000E+00
  0.00000000E+00  0.00000000E+00  0.00000000E+00
  0.00000000E+00  0.00000000E+00  0.00000000E+00
  0.00000000E+00  0.00000000E+00  0.00000000E+00
  0.00000000E+00  0.00000000E+00  0.00000000E+00
  0.00000000E+00  0.00000000E+00  0.00000000E+00
  0.00000000E+00  0.00000000E+00  0.00000000E+00
  0.00000000E+00  0.00000000E+00  0.00000000E+00
  0.00000000E+00  0.00000000E+00  0.00000000E+00
  0.00000000E+00  0.00000000E+00  0.00000000E+00
  0.00000000E+00  0.00000000E+00  0.00000000E+00
