Sandwich Zr1010 ZrO2 Zr1010             
   1.00000000000000     
     5.5967998505000001    0.0000000000000000    0.0000000000000000
     0.0000000000000000    5.1479001044999997    0.0000000000000000
     0.0000000000000000    0.0000000000000000   50.7636718750000000
   O    Zr
    64    70
Direct
 -0.0390517304989478  0.2499999850000023  0.5097000974331369
  0.0390517304989478  0.7499999400000021  0.5097000974331369
  0.6296393271367428  0.2499999850000023  0.5257280193295657
  0.3703606128632514  0.7499999400000021  0.5257280193295657
  0.0163551274775854  0.2499999850000023  0.6313554960414194
 -0.0163551274775854  0.7499999400000021  0.6313554960414194
  0.6046094327953534  0.2499999850000023  0.6504257053149044
  0.3953905072046416  0.7499999400000021  0.6504257053149044
 -0.1767965606814302  0.2499999850000023  0.8223595820824816
  0.1767965606814302  0.7499999400000021  0.8223595820824816
  0.4916446810752123  0.2499999850000023  0.7965663621348839
  0.5083552589247832  0.7499999400000021  0.7965663621348839
 -0.2119180573597525  0.2499999850000023  0.9102090741497438
  0.2119180573597525  0.7499999400000021  0.9102090741497438
  0.5316343640306469  0.2499999850000023  0.9429905854839782
  0.4683655759693488  0.7499999400000021  0.9429905854839782
  0.0004328849057991  0.2499999850000023  0.5701528613375025
 -0.0004328849057991  0.7499999400000021  0.5701528613375025
  0.3377216345848468  0.2499999850000023  0.5589683628575971
  0.6622783054151491  0.7499999400000021  0.5589683628575971
 -0.0075276269620896  0.2499999850000023  0.7124299103574447
  0.0075276269620896  0.7499999400000021  0.7124299103574447
  0.6456638651883717  0.2499999850000023  0.6948427664582845
  0.3543360748116236  0.7499999400000021  0.6948427664582845
 -0.0103190259761230  0.2499999850000023  0.8627578318348467
  0.0103190259761230  0.7499999400000021  0.8627578318348467
  0.3297338283296860  0.2499999850000023  0.8367155746683751
  0.6702661116703093  0.7499999400000021  0.8367155746683751
  0.0086795099304941  0.2499999850000023  0.9897490188728159
 -0.0086795099304941  0.7499999400000021  0.9897490188728159
  0.6531874242192398  0.2499999850000023  0.9817207498775794
  0.3468125157807557  0.7499999400000021  0.9817207498775794
  0.3170217415855136  0.0261362959611262  0.4906798113304394
  0.3170217415855136  0.4738636740388711  0.4906798113304394
  0.6829781834144907 -0.0261362959611262  0.4906798113304394
  0.6829781834144907  0.5261362659611240  0.4906798113304394
  0.2432192260724974  0.0763405593116049  0.6676963155210095
  0.2432192260724974  0.4236594106883925  0.6676963155210095
  0.7567806989275073 -0.0763405593116049  0.6676963155210095
  0.7567806989275073  0.5763405293116023  0.6676963155210095
  0.1775614416087242 -0.0301136015912302  0.7800751165206573
  0.1775614416087242  0.5301135715912276  0.7800751165206573
  0.8224384833912800  0.0301136015912302  0.7800751165206573
  0.8224384833912800  0.4698863684087670  0.7800751165206573
  0.1886733281645006  0.0687708608362261  0.9369599146802998
  0.1886733281645006  0.4312291091637713  0.9369599146802998
  0.8113265968355037 -0.0687708608362261  0.9369599146802998
  0.8113265968355037  0.5687708308362239  0.9369599146802998
  0.3208789934554563 -0.0119073873384786  0.5942592609550819
  0.3208789934554563  0.5119073573384758  0.5942592609550819
  0.6791209315445480  0.0119073873384786  0.5942592609550819
  0.6791209315445480  0.4880925826615191  0.5942592609550819
  0.3190085035264248 -0.0050595332324556  0.7339375925018403
  0.3190085035264248  0.5050595032324533  0.7339375925018403
  0.6809914214735803  0.0050595332324556  0.7339375925018403
  0.6809914214735803  0.4949404367675418  0.7339375925018403
  0.3227916431131060  0.0457897557639189  0.8792931306187645
  0.3227916431131060  0.4542102142360785  0.8792931306187648
  0.6772082818868983 -0.0457897557639189  0.8792931306187645
  0.6772082818868983  0.5457897257639166  0.8792931306187647
  0.3158168037574678  0.0340112353559962  0.0109189758137962
  0.3158168037574678  0.4659887346440011  0.0109189758137962
  0.6841831212425363 -0.0340112353559962  0.0109189758137962
  0.6841831212425363  0.5340112053559934  0.0109189758137962
  0.0924230943639108  0.7499998810000008  0.0676014219290338
  0.9075725696360855  0.2499999850000023  0.0676014219290338
  0.6374430837272369  0.7499998810000008  0.0879606084898923
  0.3625525652727614  0.2499999850000023  0.0879606124898926
  0.1432877095415239  0.7499998810000008  0.1128863504097707
  0.8567079544584730  0.2499999850000023  0.1128863504097707
  0.6459470878981913  0.7499998810000008  0.1349134302670875
  0.3540485611018070  0.2499999850000023  0.1349134302670875
  0.1416452725045472  0.7499998810000008  0.1592023693912367
  0.8583503914954494  0.2499999850000023  0.1592023693912367
  0.6351936851113408  0.7499998810000008  0.1820921143470452
  0.3648019638886579  0.2499999850000023  0.1820921143470452
  0.1336748787220523  0.7499998810000008  0.2054903778665078
  0.8663207852779445  0.2499999850000023  0.2054903778665078
  0.6308364989561880  0.7499998810000008  0.2283850661670923
  0.3691591500438117  0.2499999850000023  0.2283850661670923
  0.1289714145476978  0.7499998810000008  0.2517031171319934
  0.8710242494522987  0.2499999850000023  0.2517031171319934
  0.6301817497259083  0.7499998810000008  0.2749209712403952
  0.3698138992740906  0.2499999850000023  0.2749209712403952
  0.1323173380691082  0.7499998810000008  0.2977770632403541
  0.8676783259308882  0.2499999850000023  0.2977770632403541
  0.6347725549566684  0.7499998810000008  0.3211381081245821
  0.3652230940433305  0.2499999850000023  0.3211381081245821
  0.1399428137041501  0.7499998810000008  0.3439720734905835
  0.8600528502958463  0.2499999850000023  0.3439720734905835
  0.6475729202746014  0.7499998810000008  0.3678965159917324
  0.3524227287253979  0.2499999850000023  0.3678965159917324
  0.1488684394247941  0.7499998810000008  0.3898093518529819
  0.8511272245752021  0.2499999850000023  0.3898093518529819
  0.6428012812278114  0.7499998810000008  0.4144969652171392
  0.3571943677721878  0.2499999850000023  0.4144969652171392
  0.0949579778823728  0.7499998810000008  0.4347673140040674
  0.9050376861176240  0.2499999850000023  0.4347673140040674
  0.0000000000000000  0.0000000000000000  0.4784565425803310
  0.0000000000000000  0.4999999699999975  0.4784565425803310
  0.4999999699999975  0.0000000000000000  0.4586610367111179
  0.4999999699999975  0.4999999699999975  0.4586610367111177
  0.0000000000000000  0.0000000000000000  0.6025766548981514
  0.0000000000000000  0.4999999699999975  0.6025766548981514
  0.4999999699999975  0.0000000000000000  0.6272929732087298
  0.4999999699999975  0.4999999699999975  0.6272929732087297
  0.0000000000000000  0.0000000000000000  0.7454121393764508
  0.0000000000000000  0.4999999699999975  0.7454121393764508
  0.4999999699999975  0.0000000000000000  0.7681466457692510
  0.4999999699999975  0.4999999699999975  0.7681466457692510
  0.0000000000000000  0.0000000000000000  0.8914673478017658
  0.0000000000000000  0.4999999699999975  0.8914673478017658
  0.4999999699999975  0.0000000000000000  0.9138731624252088
  0.4999999699999975  0.4999999699999975  0.9138731624252088
  0.0000000000000000  0.0000000000000000  0.0224078969583515
  0.0000000000000000  0.4999999699999975  0.0224078969583514
  0.4999999699999975  0.0000000000000000  0.0429073579912797
  0.4999999699999975  0.4999999699999975  0.0429073579912797
  0.2796619107178108  0.2499999850000023  0.5223880187514133
  0.3242745441245550  0.7499999400000021  0.5628698771392402
  0.6757253808754498  0.2499999850000023  0.5628698771392402
  0.7203380142821939  0.7499999400000021  0.5223880187514133
  0.3380244435275220  0.2499999850000023  0.7044669330444380
  0.0884971429437375  0.7499999400000021  0.6708918306881654
  0.9115027820562667  0.2499999850000023  0.6708918306881654
  0.6619754814724833  0.7499999400000021  0.7044669330444380
  0.1375246147872161  0.2499999850000023  0.8068139736790639
  0.3630911209800277  0.7499999400000021  0.8541834236625708
  0.6369088040199760  0.2499999850000023  0.8541834236625708
  0.8624753102127887  0.7499999400000021  0.8068139736790639
  0.3303532609964329  0.2499999850000023  0.9756638015218011
  0.1166879915511396  0.7499999400000021  0.9514056105128552
  0.8833119334488645  0.2499999850000023  0.9514056105128552
  0.6696466640035721  0.7499999400000021  0.9756638015218011
 
  0.00000000E+00  0.00000000E+00  0.00000000E+00
  0.00000000E+00  0.00000000E+00  0.00000000E+00
  0.00000000E+00  0.00000000E+00  0.00000000E+00
  0.00000000E+00  0.00000000E+00  0.00000000E+00
  0.00000000E+00  0.00000000E+00  0.00000000E+00
  0.00000000E+00  0.00000000E+00  0.00000000E+00
  0.00000000E+00  0.00000000E+00  0.00000000E+00
  0.00000000E+00  0.00000000E+00  0.00000000E+00
  0.00000000E+00  0.00000000E+00  0.00000000E+00
  0.00000000E+00  0.00000000E+00  0.00000000E+00
  0.00000000E+00  0.00000000E+00  0.00000000E+00
  0.00000000E+00  0.00000000E+00  0.00000000E+00
  0.00000000E+00  0.00000000E+00  0.00000000E+00
  0.00000000E+00  0.00000000E+00  0.00000000E+00
  0.00000000E+00  0.00000000E+00  0.00000000E+00
  0.00000000E+00  0.00000000E+00  0.00000000E+00
  0.00000000E+00  0.00000000E+00  0.00000000E+00
  0.00000000E+00  0.00000000E+00  0.00000000E+00
  0.00000000E+00  0.00000000E+00  0.00000000E+00
  0.00000000E+00  0.00000000E+00  0.00000000E+00
  0.00000000E+00  0.00000000E+00  0.00000000E+00
  0.00000000E+00  0.00000000E+00  0.00000000E+00
  0.00000000E+00  0.00000000E+00  0.00000000E+00
  0.00000000E+00  0.00000000E+00  0.00000000E+00
  0.00000000E+00  0.00000000E+00  0.00000000E+00
  0.00000000E+00  0.00000000E+00  0.00000000E+00
  0.00000000E+00  0.00000000E+00  0.00000000E+00
  0.00000000E+00  0.00000000E+00  0.00000000E+00
  0.00000000E+00  0.00000000E+00  0.00000000E+00
  0.00000000E+00  0.00000000E+00  0.00000000E+00
  0.00000000E+00  0.00000000E+00  0.00000000E+00
  0.00000000E+00  0.00000000E+00  0.00000000E+00
  0.00000000E+00  0.00000000E+00  0.00000000E+00
  0.00000000E+00  0.00000000E+00  0.00000000E+00
  0.00000000E+00  0.00000000E+00  0.00000000E+00
  0.00000000E+00  0.00000000E+00  0.00000000E+00
  0.00000000E+00  0.00000000E+00  0.00000000E+00
  0.00000000E+00  0.00000000E+00  0.00000000E+00
  0.00000000E+00  0.00000000E+00  0.00000000E+00
  0.00000000E+00  0.00000000E+00  0.00000000E+00
  0.00000000E+00  0.00000000E+00  0.00000000E+00
  0.00000000E+00  0.00000000E+00  0.00000000E+00
  0.00000000E+00  0.00000000E+00  0.00000000E+00
  0.00000000E+00  0.00000000E+00  0.00000000E+00
  0.00000000E+00  0.00000000E+00  0.00000000E+00
  0.00000000E+00  0.00000000E+00  0.00000000E+00
  0.00000000E+00  0.00000000E+00  0.00000000E+00
  0.00000000E+00  0.00000000E+00  0.00000000E+00
  0.00000000E+00  0.00000000E+00  0.00000000E+00
  0.00000000E+00  0.00000000E+00  0.00000000E+00
  0.00000000E+00  0.00000000E+00  0.00000000E+00
  0.00000000E+00  0.00000000E+00  0.00000000E+00
  0.00000000E+00  0.00000000E+00  0.00000000E+00
  0.00000000E+00  0.00000000E+00  0.00000000E+00
  0.00000000E+00  0.00000000E+00  0.00000000E+00
  0.00000000E+00  0.00000000E+00  0.00000000E+00
  0.00000000E+00  0.00000000E+00  0.00000000E+00
  0.00000000E+00  0.00000000E+00  0.00000000E+00
  0.00000000E+00  0.00000000E+00  0.00000000E+00
  0.00000000E+00  0.00000000E+00  0.00000000E+00
  0.00000000E+00  0.00000000E+00  0.00000000E+00
  0.00000000E+00  0.00000000E+00  0.00000000E+00
  0.00000000E+00  0.00000000E+00  0.00000000E+00
  0.00000000E+00  0.00000000E+00  0.00000000E+00
  0.00000000E+00  0.00000000E+00  0.00000000E+00
  0.00000000E+00  0.00000000E+00  0.00000000E+00
  0.00000000E+00  0.00000000E+00  0.00000000E+00
  0.00000000E+00  0.00000000E+00  0.00000000E+00
  0.00000000E+00  0.00000000E+00  0.00000000E+00
  0.00000000E+00  0.00000000E+00  0.00000000E+00
  0.00000000E+00  0.00000000E+00  0.00000000E+00
  0.00000000E+00  0.00000000E+00  0.00000000E+00
  0.00000000E+00  0.00000000E+00  0.00000000E+00
  0.00000000E+00  0.00000000E+00  0.00000000E+00
  0.00000000E+00  0.00000000E+00  0.00000000E+00
  0.00000000E+00  0.00000000E+00  0.00000000E+00
  0.00000000E+00  0.00000000E+00  0.00000000E+00
  0.00000000E+00  0.00000000E+00  0.00000000E+00
  0.00000000E+00  0.00000000E+00  0.00000000E+00
  0.00000000E+00  0.00000000E+00  0.00000000E+00
  0.00000000E+00  0.00000000E+00  0.00000000E+00
  0.00000000E+00  0.00000000E+00  0.00000000E+00
  0.00000000E+00  0.00000000E+00  0.00000000E+00
  0.00000000E+00  0.00000000E+00  0.00000000E+00
  0.00000000E+00  0.00000000E+00  0.00000000E+00
  0.00000000E+00  0.00000000E+00  0.00000000E+00
  0.00000000E+00  0.00000000E+00  0.00000000E+00
  0.00000000E+00  0.00000000E+00  0.00000000E+00
  0.00000000E+00  0.00000000E+00  0.00000000E+00
  0.00000000E+00  0.00000000E+00  0.00000000E+00
  0.00000000E+00  0.00000000E+00  0.00000000E+00
  0.00000000E+00  0.00000000E+00  0.00000000E+00
  0.00000000E+00  0.00000000E+00  0.00000000E+00
  0.00000000E+00  0.00000000E+00  0.00000000E+00
  0.00000000E+00  0.00000000E+00  0.00000000E+00
  0.00000000E+00  0.00000000E+00  0.00000000E+00
  0.00000000E+00  0.00000000E+00  0.00000000E+00
  0.00000000E+00  0.00000000E+00  0.00000000E+00
  0.00000000E+00  0.00000000E+00  0.00000000E+00
  0.00000000E+00  0.00000000E+00  0.00000000E+00
  0.00000000E+00  0.00000000E+00  0.00000000E+00
  0.00000000E+00  0.00000000E+00  0.00000000E+00
  0.00000000E+00  0.00000000E+00  0.00000000E+00
  0.00000000E+00  0.00000000E+00  0.00000000E+00
  0.00000000E+00  0.00000000E+00  0.00000000E+00
  0.00000000E+00  0.00000000E+00  0.00000000E+00
  0.00000000E+00  0.00000000E+00  0.00000000E+00
  0.00000000E+00  0.00000000E+00  0.00000000E+00
  0.00000000E+00  0.00000000E+00  0.00000000E+00
  0.00000000E+00  0.00000000E+00  0.00000000E+00
  0.00000000E+00  0.00000000E+00  0.00000000E+00
  0.00000000E+00  0.00000000E+00  0.00000000E+00
  0.00000000E+00  0.00000000E+00  0.00000000E+00
  0.00000000E+00  0.00000000E+00  0.00000000E+00
  0.00000000E+00  0.00000000E+00  0.00000000E+00
  0.00000000E+00  0.00000000E+00  0.00000000E+00
  0.00000000E+00  0.00000000E+00  0.00000000E+00
  0.00000000E+00  0.00000000E+00  0.00000000E+00
  0.00000000E+00  0.00000000E+00  0.00000000E+00
  0.00000000E+00  0.00000000E+00  0.00000000E+00
  0.00000000E+00  0.00000000E+00  0.00000000E+00
  0.00000000E+00  0.00000000E+00  0.00000000E+00
  0.00000000E+00  0.00000000E+00  0.00000000E+00
  0.00000000E+00  0.00000000E+00  0.00000000E+00
  0.00000000E+00  0.00000000E+00  0.00000000E+00
  0.00000000E+00  0.00000000E+00  0.00000000E+00
  0.00000000E+00  0.00000000E+00  0.00000000E+00
  0.00000000E+00  0.00000000E+00  0.00000000E+00
  0.00000000E+00  0.00000000E+00  0.00000000E+00
  0.00000000E+00  0.00000000E+00  0.00000000E+00
  0.00000000E+00  0.00000000E+00  0.00000000E+00
  0.00000000E+00  0.00000000E+00  0.00000000E+00
  0.00000000E+00  0.00000000E+00  0.00000000E+00
  0.00000000E+00  0.00000000E+00  0.00000000E+00
