Zr2 O4                                  
   1.00000000000000     
     3.6341989903541707    0.0000000000000000    0.0000000000000000
    -0.0000000000000000    3.6341989903541707   -0.0000000000000000
    -0.0000000000000000    0.0000000000000000    5.3091907923915036
   O    Zr
     4     2
Selective dynamics
Direct
  0.5000000000000000  0.0000000000000000  0.1913350170391608   T   T   T
  0.5000000000000000 -0.0000000000000000  0.6913350170391610   T   T   T
  0.0000000000000000  0.5000000000000000  0.8086649829608390   T   T   T
  0.0000000000000000  0.5000000000000000  0.3086649829608392   T   T   T
  0.5000000000000000  0.5000000000000000  0.0000000000000000   T   T   T
  0.0000000000000000 -0.0000000000000000  0.5000000000000000   T   T   T
 
  0.00000000E+00  0.00000000E+00  0.00000000E+00
  0.00000000E+00  0.00000000E+00  0.00000000E+00
  0.00000000E+00  0.00000000E+00  0.00000000E+00
  0.00000000E+00  0.00000000E+00  0.00000000E+00
  0.00000000E+00  0.00000000E+00  0.00000000E+00
  0.00000000E+00  0.00000000E+00  0.00000000E+00
