Zr2 O4                                  
   1.00000000000000     
	3.64372124	0.00000000	0.00000000
	0.00000000	3.64372124	0.00000000
	0.00000000	0.00000000	5.30240000
   O    Zr
     4     2
Direct
	0.00000000	0.50000000	0.19813022
	0.00000000	0.50000000	0.69813022
	0.50000000	0.00000000	0.80186978
	0.50000000	0.00000000	0.30186978
	0.00000000	0.00000000	0.00000000
	0.50000000	0.50000000	0.50000000
 
