ZrO2 superficie terminada en O          
   1.02000000000000     
     3.5847056479525357   -0.0000281072137648   -0.0101655495800117
    -0.0000281072137648    3.5847056479525357    0.0101655495800117
    -0.2023073380285015    0.2023073380285015   69.4237310476971885
   Zr   O 
  13  28
Selective dynamics
Direct
  0.5151196095728956  0.5053261186352305  0.0364413081179056   T   T   T
  0.0031078689801688  0.0021122041794206  0.0743456448617353   T   T   T
  0.5079046943017775  0.5071887890546387  0.1116901707857636   T   T   T
  0.0024131689825928  0.0019812494164369  0.1490283956886107   T   T   T
  0.5076488750958678  0.5079965807198716  0.1862890392182541   T   T   T
  0.0023618794472438  0.0026834028954272  0.2235121503792026   T   T   T
  0.5076826500270485  0.5076826500270485  0.2607585778652108   T   T   T
  0.0026834028954272  0.0023618794472438  0.2980050053628435   T   T   T
  0.5079965807198716  0.5076488750958678  0.3352281165121605   T   T   T
  0.0019812494164369  0.0024131689825928  0.3724887600534285   T   T   T
  0.5071887890546387  0.5079046943017775  0.4098269849446508   T   T   T
  0.0021122041794206  0.0031078689801688  0.4471715108803108   T   T   T
  0.5053261186352305  0.5151196095728956  0.4850758476125090   T   T   T
  0.0103524320936348  0.5057223377142355  0.0221415110014146   T   T   T
 -0.0035191880150581  0.5039666165064566  0.0598572121399677   T   T   T
  0.5079584561145165  0.0069586410521076  0.0201495442735162   T   T   T
  0.4990271430262376  0.0039153006020971  0.0527581815749958   T   T   T
  0.0057141450291174  0.5060870511475851  0.0971361446116647   T   T   T
  0.0041556652494066  0.5043700002261724  0.1343355879310968   T   T   T
  0.5045058737055756  0.0053972674159347  0.0891412188492770   T   T   T
  0.5053322681364616  0.0052019683599135  0.1264793949284966   T   T   T
  0.0054381135233333  0.5058404239851421  0.1715389827904990   T   T   T
  0.0044527631028841  0.5049154586081944  0.2087621935980298   T   T   T
  0.5046179248232948  0.0044166611650622  0.1637714688929164   T   T   T
  0.5055889367049321  0.0056736633465241  0.2010392673527713   T   T   T
  0.0054317251225903  0.5057074426032384  0.2459881558078595   T   T   T
  0.0046049530116873  0.5046388667331517  0.2832252529705641   T   T   T
  0.5046388667331517  0.0046049530116873  0.2382919027743881   T   T   T
  0.5057074426032384  0.0054317251225903  0.2755289999370927   T   T   T
  0.0056736633465241  0.5055889367049321  0.3204778883921811   T   T   T
  0.0044166611650622  0.5046179248232948  0.3577456868520358   T   T   T
  0.5049154586081944  0.0044527631028841  0.3127549621469224   T   T   T
  0.5058404239851421  0.0054381135233333  0.3499781729544533   T   T   T
  0.0052019683599135  0.5053322681364616  0.3950377608164556   T   T   T
  0.0053972674159347  0.5045058737055756  0.4323759368956681   T   T   T
  0.5043700002261724  0.0041556652494066  0.3871815678138484   T   T   T
  0.5060870511475851  0.0057141450291174  0.4243810111332876   T   T   T
  0.0039153006020971  0.4990271430262376  0.4687589741699564   T   T   T
  0.0069586410521076  0.5079584561145165  0.5013676114714360   T   T   T
  0.5039666165064566 -0.0035191880150581  0.4616599436049845   T   T   T
  0.5057223377142355  0.0103524320936348  0.4993756447435376   T   T   T
 
  0.00000000E+00  0.00000000E+00  0.00000000E+00
  0.00000000E+00  0.00000000E+00  0.00000000E+00
  0.00000000E+00  0.00000000E+00  0.00000000E+00
  0.00000000E+00  0.00000000E+00  0.00000000E+00
  0.00000000E+00  0.00000000E+00  0.00000000E+00
  0.00000000E+00  0.00000000E+00  0.00000000E+00
  0.00000000E+00  0.00000000E+00  0.00000000E+00
  0.00000000E+00  0.00000000E+00  0.00000000E+00
  0.00000000E+00  0.00000000E+00  0.00000000E+00
  0.00000000E+00  0.00000000E+00  0.00000000E+00
  0.00000000E+00  0.00000000E+00  0.00000000E+00
  0.00000000E+00  0.00000000E+00  0.00000000E+00
  0.00000000E+00  0.00000000E+00  0.00000000E+00
  0.00000000E+00  0.00000000E+00  0.00000000E+00
  0.00000000E+00  0.00000000E+00  0.00000000E+00
  0.00000000E+00  0.00000000E+00  0.00000000E+00
  0.00000000E+00  0.00000000E+00  0.00000000E+00
  0.00000000E+00  0.00000000E+00  0.00000000E+00
  0.00000000E+00  0.00000000E+00  0.00000000E+00
  0.00000000E+00  0.00000000E+00  0.00000000E+00
  0.00000000E+00  0.00000000E+00  0.00000000E+00
  0.00000000E+00  0.00000000E+00  0.00000000E+00
  0.00000000E+00  0.00000000E+00  0.00000000E+00
  0.00000000E+00  0.00000000E+00  0.00000000E+00
  0.00000000E+00  0.00000000E+00  0.00000000E+00
  0.00000000E+00  0.00000000E+00  0.00000000E+00
  0.00000000E+00  0.00000000E+00  0.00000000E+00
  0.00000000E+00  0.00000000E+00  0.00000000E+00
  0.00000000E+00  0.00000000E+00  0.00000000E+00
  0.00000000E+00  0.00000000E+00  0.00000000E+00
  0.00000000E+00  0.00000000E+00  0.00000000E+00
  0.00000000E+00  0.00000000E+00  0.00000000E+00
  0.00000000E+00  0.00000000E+00  0.00000000E+00
  0.00000000E+00  0.00000000E+00  0.00000000E+00
  0.00000000E+00  0.00000000E+00  0.00000000E+00
  0.00000000E+00  0.00000000E+00  0.00000000E+00
  0.00000000E+00  0.00000000E+00  0.00000000E+00
  0.00000000E+00  0.00000000E+00  0.00000000E+00
  0.00000000E+00  0.00000000E+00  0.00000000E+00
  0.00000000E+00  0.00000000E+00  0.00000000E+00
  0.00000000E+00  0.00000000E+00  0.00000000E+00
