Zr2 O4
1.0
        3.6459069252         0.0000000000         0.0000000000
        0.0000000000         3.6459069252         0.0000000000
        0.0000000000         0.0000000000         5.2751469612
   Zr    O
    2    4
Direct
     0.500000000         0.500000000         0.500000000
     0.000000000         0.000000000         0.000000000
     0.500000000         0.000000000         0.697615981
     0.500000000         0.000000000         0.197615981
     0.000000000         0.500000000         0.302384019
     0.000000000         0.500000000         0.802384019
