Sandwich Zr1010 ZrO2 Zr1010                                        
1.0
5.59679985  0.00000000  0.00000000
0.00000000  5.14790010  0.00000000
0.00000000  0.00000000  79.84536528
O Zr
  64 106
Selective Dynamics
Cartesian
0.0000000000  1.2869750300  29.3979825290   F F F
0.0000000000  3.8609250800  29.3979825290 F F F
2.7983999300  1.2869750300  29.3979825290 F F F
2.7983999300  3.8609250800  29.3979825290 F F F
0.0000000000  1.2869750300  34.6262983590 F F F
0.0000000000  3.8609250800  34.6262983590 F F F
2.7983999300  1.2869750300  34.6262983590 F F F
2.7983999300  3.8609250800  34.6262983590 F F F
0.0000000000  1.2869750300  39.8546141890 F F F
0.0000000000  3.8609250800  39.8546141890 F F F
2.7983999300  1.2869750300  39.8546141890 F F F
2.7983999300  3.8609250800  39.8546141890 F F F
0.0000000000  1.2869750300  45.0829300190 F F F
0.0000000000  3.8609250800  45.0829300190 F F F
2.7983999300  1.2869750300  45.0829300190 F F F
2.7983999300  3.8609250800  45.0829300190 F F F
0.0000000000  1.2869750300  32.0121404390 F F F
0.0000000000  3.8609250800  32.0121404390 F F F
2.7983999300  1.2869750300  32.0121404390 F F F
2.7983999300  3.8609250800  32.0121404390 F F F
0.0000000000  1.2869750300  37.2404562690 F F F
0.0000000000  3.8609250800  37.2404562690 F F F
2.7983999300  1.2869750300  37.2404562690 F F F
2.7983999300  3.8609250800  37.2404562690 F F F
0.0000000000  1.2869750300  42.4687720990 F F F
0.0000000000  3.8609250800  42.4687720990 F F F
2.7983999300  1.2869750300  42.4687720990 F F F
2.7983999300  3.8609250800  42.4687720990 F F F
0.0000000000  1.2869750300  47.6970879290 F F F
0.0000000000  3.8609250800  47.6970879290 F F F
2.7983999300  1.2869750300  47.6970879290 F F F
2.7983999300  3.8609250800  47.6970879290 F F F
1.3991999600  0.0000000000  28.9169774290 F F F
1.3991999600  2.5739500500  28.9169774290 F F F
4.1975998900  0.0000000000  28.9169774290 F F F
4.1975998900  2.5739500500  28.9169774290 F F F
1.3991999600  0.0000000000  34.1452932590 F F F
1.3991999600  2.5739500500  34.1452932590 F F F
4.1975998900  0.0000000000  34.1452932590 F F F
4.1975998900  2.5739500500  34.1452932590 F F F
1.3991999600  0.0000000000  39.3736090890 F F F
1.3991999600  2.5739500500  39.3736090890 F F F
4.1975998900  0.0000000000  39.3736090890 F F F
4.1975998900  2.5739500500  39.3736090890 F F F
1.3991999600  0.0000000000  44.6019249190 F F F
1.3991999600  2.5739500500  44.6019249190 F F F
4.1975998900  0.0000000000  44.6019249190 F F F
4.1975998900  2.5739500500  44.6019249190 F F F
1.3991999600  0.0000000000  31.5311353490 F F F
1.3991999600  2.5739500500  31.5311353490 F F F
4.1975998900  0.0000000000  31.5311353490 F F F
4.1975998900  2.5739500500  31.5311353490 F F F
1.3991999600  0.0000000000  36.7594511790 F F F
1.3991999600  2.5739500500  36.7594511790 F F F
4.1975998900  0.0000000000  36.7594511790 F F F
4.1975998900  2.5739500500  36.7594511790 F F F
1.3991999600  0.0000000000  41.9877670090 F F F
1.3991999600  2.5739500500  41.9877670090 F F F
4.1975998900  0.0000000000  41.9877670090 F F F
4.1975998900  2.5739500500  41.9877670090 F F F
1.3991999600  0.0000000000  47.2160828390 F F F
1.3991999600  2.5739500500  47.2160828390 F F F
4.1975998900  0.0000000000  47.2160828390 F F F
4.1975998900  2.5739500500  47.2160828390 F F F
0.9327959400  3.8609248140  0.0000000000 F F F
4.6639800340  1.2869750130  0.0000000970 F F F
3.7311839270  3.8609248140  1.6156500580 F F F
1.8655920470  1.2869750130  1.6156501550 F F F
0.9327959400  3.8609248140  3.2313001160 F F F
4.6639800340  1.2869750130  3.2313002120 F F F
3.7311839270  3.8609248140  4.8469501730 F F F
1.8655920470  1.2869750130  4.8469502700 F F F
0.9327959400  3.8609248140  6.4626002310 F F F
4.6639800340  1.2869750130  6.4626003280 F F F
3.7311839270  3.8609248140  8.0782502890 F F F
1.8655920470  1.2869750130  8.0782503860 F F F
0.9327959400  3.8609248140  9.6939003490 F F F
4.6639800340  1.2869750130  9.6939004390 F F F
3.7311839270  3.8609248140  11.3095504090 F F F
1.8655920470  1.2869750130  11.3095504990 F F F
0.9327959400  3.8609248140  12.9252004590 F F F
4.6639800340  1.2869750130  12.9252005590 F F F
3.7311839270  3.8609248140  14.5408505190 F F F
1.8655920470  1.2869750130  14.5408506190 F F F
0.9327959400  3.8609248140  16.1565005790 F F F
4.6639800340  1.2869750130  16.1565006790 F F F
3.7311839270  3.8609248140  17.7721506390 F F F
1.8655920470  1.2869750130  17.7721507290 F F F
0.9327959400  3.8609248140  19.3878006890 F F F
4.6639800340  1.2869750130  19.3878007890 F F F
3.7311839270  3.8609248140  21.0034507490 F F F
1.8655920470  1.2869750130  21.0034508490 F F F
0.9327959400  3.8609248140  22.6191008090 F F F
4.6639800340  1.2869750130  22.6191009090 F F F
3.7311839270  3.8609248140  24.2347508690 F F F
1.8655920470  1.2869750130  24.2347509590 F F F
0.9327959400  3.8609248140  25.8504009290 F F F
4.6639800340  1.2869750130  25.8504010190 F F F
0.0000000000  0.0000000000  27.8504010190 F F F
0.0000000000  2.5739500520  27.8504010190 F F F
2.7983999250  0.0000000000  27.8504010190 F F F
2.7983999250  2.5739500520  27.8504010190 F F F
0.0000000000  0.0000000000  33.0787168490 F F F
0.0000000000  2.5739500520  33.0787168490 F F F
2.7983999250  0.0000000000  33.0787168490 F F F
2.7983999250  2.5739500520  33.0787168490 F F F
0.0000000000  0.0000000000  38.3070326790 F F F
0.0000000000  2.5739500520  38.3070326790 F F F
2.7983999250  0.0000000000  38.3070326790 F F F
2.7983999250  2.5739500520  38.3070326790 F F F
0.0000000000  0.0000000000  43.5353485090 F F F
0.0000000000  2.5739500520  43.5353485090 F F F
2.7983999250  0.0000000000  43.5353485090 F F F
2.7983999250  2.5739500520  43.5353485090 F F F
0.0000000000  0.0000000000  48.7636643390 F F F
0.0000000000  2.5739500520  48.7636643390 F F F
2.7983999250  0.0000000000  48.7636643390 F F F
2.7983999250  2.5739500520  48.7636643390 F F F
1.3991999630  1.2869750260  30.4645589390 F F F
1.3991999630  3.8609250780  30.4645589390 F F F
4.1975998880  1.2869750260  30.4645589390 F F F
4.1975998880  3.8609250780  30.4645589390 F F F
1.3991999630  1.2869750260  35.6928747690 F F F
1.3991999630  3.8609250780  35.6928747690 F F F
4.1975998880  1.2869750260  35.6928747690 F F F
4.1975998880  3.8609250780  35.6928747690 F F F
1.3991999630  1.2869750260  40.9211905990 F F F
1.3991999630  3.8609250780  40.9211905990 F F F
4.1975998880  1.2869750260  40.9211905990 F F F
4.1975998880  3.8609250780  40.9211905990 F F F
1.3991999630  1.2869750260  46.1495064290 F F F
1.3991999630  3.8609250780  46.1495064290 F F F
4.1975998880  1.2869750260  46.1495064290 F F F
4.1975998880  3.8609250780  46.1495064290 F F F
0.9327959400  3.8609248140  50.7636643390 F F F
4.6639800340  1.2869750130  50.7636644290 F F F
3.7311839270  3.8609248140  52.3793143990 F F F
1.8655920470  1.2869750130  52.3793144890 F F F
0.9327959400  3.8609248140  53.9949644490 F F F
4.6639800340  1.2869750130  53.9949645490 F F F
3.7311839270  3.8609248140  55.6106145090 F F F
1.8655920470  1.2869750130  55.6106146090 F F F
0.9327959400  3.8609248140  57.2262645690 F F F
4.6639800340  1.2869750130  57.2262646690 F F F
3.7311839270  3.8609248140  58.8419146290 F F F
1.8655920470  1.2869750130  58.8419147190 F F F
0.9327959400  3.8609248140  60.4575646790 F F F
4.6639800340  1.2869750130  60.4575647790 F F F
3.7311839270  3.8609248140  62.0732147390 F F F
1.8655920470  1.2869750130  62.0732148390 F F F
0.9327959400  3.8609248140  63.6888647990 F F F
4.6639800340  1.2869750130  63.6888648990 F F F
3.7311839270  3.8609248140  65.3045148590 F F F
1.8655920470  1.2869750130  65.3045149490 F F F
0.9327959400  3.8609248140  66.9201649190 F F F
4.6639800340  1.2869750130  66.9201650090 F F F
3.7311839270  3.8609248140  68.5358149690 F F F
1.8655920470  1.2869750130  68.5358150690 F F F
0.9327959400  3.8609248140  70.1514650290 F F F
4.6639800340  1.2869750130  70.1514651290 F F F
3.7311839270  3.8609248140  71.7671150890 F F F
1.8655920470  1.2869750130  71.7671151890 F F F
0.9327959400  3.8609248140  73.3827651490 F F F
4.6639800340  1.2869750130  73.3827652390 F F F
3.7311839270  3.8609248140  74.9984151990 F F F
1.8655920470  1.2869750130  74.9984152990 F F F
0.9327959400  3.8609248140  76.6140652590 F F F
4.6639800340  1.2869750130  76.6140653590 F F F
3.73118393  3.86092481  78.22971532 F F F
1.86559205  1.28697501  78.22971532 F F F
