Sandwich Zr1010 ZrO2 Zr1010             
   1.00000000000000     
     7.3395427256772647    0.0000000000000000    0.0000000000000000
     0.0000000000000000    6.7072739629587819    0.0000000000000000
     0.0000000000000000    0.0000000000000000   44.7945253908522716
   O    Zr
    64    70
Direct
  0.0060448683409673  0.2499999850000023  0.5497821428592897
 -0.0060448683409673  0.7499999400000021  0.5497821428592897
  0.4987273654191009  0.2499999850000023  0.5511679177880144
  0.5012725745808947  0.7499999400000021  0.5511679177880144
 -0.0006336285037051  0.2499999850000023  0.6710327789660073
  0.0006336285037051  0.7499999400000021  0.6710327789660073
  0.5013785243205932  0.2499999850000023  0.6712518581181763
  0.4986214156794017  0.7499999400000021  0.6712518581181763
 -0.0002407596624454  0.2499999850000023  0.7921635331308193
  0.0002407596624454  0.7499999400000021  0.7921635331308193
  0.4989560629356850  0.2499999850000023  0.7912293117744659
  0.5010438770643106  0.7499999400000021  0.7912293117744659
  0.0044875464273526  0.2499999850000023  0.9136512845935879
 -0.0044875464273526  0.7499999400000021  0.9136512845935879
  0.5100814745321123  0.2499999850000023  0.9092704424119920
  0.4899184654678830  0.7499999400000021  0.9092704424119920
  0.0123113888785109  0.2499999850000023  0.6095876944655444
 -0.0123113888785109  0.7499999400000021  0.6095876944655444
  0.4849901853770670  0.2499999850000023  0.6101313462799608
  0.5150097546229278  0.7499999400000021  0.6101313462799608
 -0.0131517280489580  0.2499999850000023  0.7311629000784207
  0.0131517280489580  0.7499999400000021  0.7311629000784207
  0.5131205665226605  0.2499999850000023  0.7306660767323478
  0.4868793734773350  0.7499999400000021  0.7306660767323478
  0.0100063204895114  0.2499999850000023  0.8521672640797817
 -0.0100063204895114  0.7499999400000021  0.8521672640797817
  0.4896608630089807  0.2499999850000023  0.8495845308722486
  0.5103390769910140  0.7499999400000021  0.8495845308722486
 -0.0362409711218180  0.2499999850000023  0.9767306180309820
  0.0362409711218180  0.7499999400000021  0.9767306180309820
  0.5158856522870919  0.2499999850000023  0.9647777278163318
  0.4841142877129032  0.7499999400000021  0.9647777278163318
  0.2485803486364947 -0.0070043851941977  0.5361936723303985
  0.2485803486364947  0.5070043551941946  0.5361936723303985
  0.7514195763635093  0.0070043851941977  0.5361936723303985
  0.7514195763635093  0.4929955848057993  0.5361936723303985
  0.2494276694181075 -0.0033096645965522  0.6565659262399590
  0.2494276694181075  0.5033096345965499  0.6565659262399590
  0.7505722555818970  0.0033096645965522  0.6565659262399590
  0.7505722555818970  0.4966903054034452  0.6565659262399590
  0.2498339049824246  0.0037236119225807  0.7775933195640201
  0.2498339049824246  0.4962763580774172  0.7775933195640201
  0.7501660200175811 -0.0037236119225807  0.7775933195640201
  0.7501660200175811  0.5037235819225789  0.7775933195640201
  0.2505920933834911  0.0003955594490142  0.8980322801885171
  0.2505920933834911  0.4996044105509834  0.8980322801885171
  0.7494078316165143 -0.0003955594490142  0.8980322801885171
  0.7494078316165143  0.5003955294490119  0.8980322801885171
  0.2508762269916741 -0.0086670231908595  0.5973596422036990
  0.2508762269916741  0.5086669931908568  0.5973596422036990
  0.7491236980083303  0.0086670231908595  0.5973596422036990
  0.7491236980083303  0.4913329468091378  0.5973596422036990
  0.2497115033919106  0.0083564781039519  0.7177994436499708
  0.2497115033919106  0.4916434918960450  0.7177994436499708
  0.7502884216080935 -0.0083564781039519  0.7177994436499708
  0.7502884216080935  0.5083564481039491  0.7177994436499708
  0.2488667445937257 -0.0069846958705019  0.8388347690763089
  0.2488667445937257  0.5069846658704998  0.8388347690763089
  0.7511331804062779  0.0069846958705019  0.8388347690763089
  0.7511331804062779  0.4930152741294958  0.8388347690763089
  0.2436744337466737  0.0149480611336287  0.9597411367914735
  0.2436744337466737  0.4850519088663690  0.9597411367914735
  0.7563254912533305 -0.0149480611336287  0.9597411367914735
  0.7563254912533305  0.5149480311336263  0.9597411367914735
  0.3352939482676043  0.7499998810000008  0.0502650416325317
  0.6647017157323929  0.2499999850000023  0.0502650416325316
  0.7002443663739865  0.7499998810000008  0.0396955475458638
  0.2997512826260125  0.2499999850000023  0.0396955515458641
  0.0001382843299653  0.7499998810000008  0.0729146326692080
 -0.0001426203299684  0.2499999850000023  0.0729146326692080
  0.6240744141901123  0.7499998810000008  0.1015594828913912
  0.3759212348098864  0.2499999850000023  0.1015594828913912
  0.2289379424776523  0.7499998810000008  0.1267096295206429
  0.7710577215223443  0.2499999850000023  0.1267096295206429
  0.5771514626237978  0.7499998810000008  0.1615566018573284
  0.4228441863762007  0.2499999850000023  0.1615566018573284
  0.2310831564674282  0.7499998810000008  0.1927409768926203
  0.7689125075325682  0.2499999850000023  0.1927409768926203
  0.5874538661445193  0.7499998810000008  0.2241038143232882
  0.4125417828554792  0.2499999850000023  0.2241038143232882
  0.2264410213806597  0.7499998810000008  0.2554731440381396
  0.7735546426193373  0.2499999850000023  0.2554731440381396
  0.5834395347990553  0.7499998810000008  0.2862770471339331
  0.4165561142009431  0.2499999850000023  0.2862770471339331
  0.2367343711640409  0.7499998810000008  0.3197810638957954
  0.7632612928359549  0.2499999850000023  0.3197810638957954
  0.5871922254406591  0.7499998810000008  0.3485730376649555
  0.4128034235593402  0.2499999850000023  0.3485730376649555
  0.2437716922075586  0.7499998810000008  0.3859995129318963
  0.7562239717924383  0.2499999850000023  0.3859995129318963
  0.7043452618997714  0.7499998810000008  0.4064729096551453
  0.2956503871002269  0.2499999850000023  0.4064729096551453
  0.0521005636277348  0.7499998810000008  0.4475978509717859
  0.9478951003722622  0.2499999850000023  0.4475978509717859
  0.7333087110317722  0.7499998810000008  0.4713104628793782
  0.2666869379682263  0.2499999850000023  0.4713104628793782
  0.4076134389167817  0.7499998810000008  0.4504475574697938
  0.5923822250832148  0.2499999850000023  0.4504475574697938
  0.0000000000000000  0.0000000000000000  0.5144957836543138
  0.0000000000000000  0.4999999699999975  0.5144957836543138
  0.4999999699999975  0.0000000000000000  0.5162657576495522
  0.4999999699999975  0.4999999699999975  0.5162657576495522
  0.0000000000000000  0.0000000000000000  0.6346033839605919
  0.0000000000000000  0.4999999699999975  0.6346033839605919
  0.4999999699999975  0.0000000000000000  0.6347221635694310
  0.4999999699999975  0.4999999699999975  0.6347221635694310
  0.0000000000000000  0.0000000000000000  0.7558647307813251
  0.0000000000000000  0.4999999699999975  0.7558647307813251
  0.4999999699999975  0.0000000000000000  0.7553693191716786
  0.4999999699999975  0.4999999699999975  0.7553693191716786
  0.0000000000000000  0.0000000000000000  0.8765960964026205
  0.0000000000000000  0.4999999699999975  0.8765960964026205
  0.4999999699999975  0.0000000000000000  0.8748438126012079
  0.4999999699999975  0.4999999699999975  0.8748438126012079
  0.0000000000000000  0.0000000000000000 -0.0000525786758582
  0.0000000000000000  0.4999999699999975 -0.0000525786758582
  0.4999999699999975  0.0000000000000000  0.9896161833664316
  0.4999999699999975  0.4999999699999975  0.9896161833664316
  0.2524217224086189  0.2499999850000023  0.5740089900855846
  0.2433510321800530  0.7499999400000021  0.5710807693311516
  0.7566488928199524  0.2499999850000023  0.5710807693311516
  0.7475782025913850  0.7499999400000021  0.5740089900855846
  0.2510616971884422  0.2499999850000023  0.6919123982826226
  0.2497037535523725  0.7499999400000021  0.6943008670623911
  0.7502961714476321  0.2499999850000023  0.6943008670623911
  0.7489382278115617  0.7499999400000021  0.6919123982826226
  0.2508146719389096  0.2499999850000023  0.8149034879522262
  0.2524385171750848  0.7499999400000021  0.8128022244819741
  0.7475614078249194  0.2499999850000023  0.8128022244819741
  0.7491852530610945  0.7499999400000021  0.8149034879522262
  0.2682690385324695  0.2499999850000023  0.9316624293247838
  0.2395856496101867  0.7499999400000021  0.9361387389376367
  0.7604142753898175  0.2499999850000023  0.9361387389376367
  0.7317308864675351  0.7499999400000021  0.9316624293247838
 
  0.00000000E+00  0.00000000E+00  0.00000000E+00
  0.00000000E+00  0.00000000E+00  0.00000000E+00
  0.00000000E+00  0.00000000E+00  0.00000000E+00
  0.00000000E+00  0.00000000E+00  0.00000000E+00
  0.00000000E+00  0.00000000E+00  0.00000000E+00
  0.00000000E+00  0.00000000E+00  0.00000000E+00
  0.00000000E+00  0.00000000E+00  0.00000000E+00
  0.00000000E+00  0.00000000E+00  0.00000000E+00
  0.00000000E+00  0.00000000E+00  0.00000000E+00
  0.00000000E+00  0.00000000E+00  0.00000000E+00
  0.00000000E+00  0.00000000E+00  0.00000000E+00
  0.00000000E+00  0.00000000E+00  0.00000000E+00
  0.00000000E+00  0.00000000E+00  0.00000000E+00
  0.00000000E+00  0.00000000E+00  0.00000000E+00
  0.00000000E+00  0.00000000E+00  0.00000000E+00
  0.00000000E+00  0.00000000E+00  0.00000000E+00
  0.00000000E+00  0.00000000E+00  0.00000000E+00
  0.00000000E+00  0.00000000E+00  0.00000000E+00
  0.00000000E+00  0.00000000E+00  0.00000000E+00
  0.00000000E+00  0.00000000E+00  0.00000000E+00
  0.00000000E+00  0.00000000E+00  0.00000000E+00
  0.00000000E+00  0.00000000E+00  0.00000000E+00
  0.00000000E+00  0.00000000E+00  0.00000000E+00
  0.00000000E+00  0.00000000E+00  0.00000000E+00
  0.00000000E+00  0.00000000E+00  0.00000000E+00
  0.00000000E+00  0.00000000E+00  0.00000000E+00
  0.00000000E+00  0.00000000E+00  0.00000000E+00
  0.00000000E+00  0.00000000E+00  0.00000000E+00
  0.00000000E+00  0.00000000E+00  0.00000000E+00
  0.00000000E+00  0.00000000E+00  0.00000000E+00
  0.00000000E+00  0.00000000E+00  0.00000000E+00
  0.00000000E+00  0.00000000E+00  0.00000000E+00
  0.00000000E+00  0.00000000E+00  0.00000000E+00
  0.00000000E+00  0.00000000E+00  0.00000000E+00
  0.00000000E+00  0.00000000E+00  0.00000000E+00
  0.00000000E+00  0.00000000E+00  0.00000000E+00
  0.00000000E+00  0.00000000E+00  0.00000000E+00
  0.00000000E+00  0.00000000E+00  0.00000000E+00
  0.00000000E+00  0.00000000E+00  0.00000000E+00
  0.00000000E+00  0.00000000E+00  0.00000000E+00
  0.00000000E+00  0.00000000E+00  0.00000000E+00
  0.00000000E+00  0.00000000E+00  0.00000000E+00
  0.00000000E+00  0.00000000E+00  0.00000000E+00
  0.00000000E+00  0.00000000E+00  0.00000000E+00
  0.00000000E+00  0.00000000E+00  0.00000000E+00
  0.00000000E+00  0.00000000E+00  0.00000000E+00
  0.00000000E+00  0.00000000E+00  0.00000000E+00
  0.00000000E+00  0.00000000E+00  0.00000000E+00
  0.00000000E+00  0.00000000E+00  0.00000000E+00
  0.00000000E+00  0.00000000E+00  0.00000000E+00
  0.00000000E+00  0.00000000E+00  0.00000000E+00
  0.00000000E+00  0.00000000E+00  0.00000000E+00
  0.00000000E+00  0.00000000E+00  0.00000000E+00
  0.00000000E+00  0.00000000E+00  0.00000000E+00
  0.00000000E+00  0.00000000E+00  0.00000000E+00
  0.00000000E+00  0.00000000E+00  0.00000000E+00
  0.00000000E+00  0.00000000E+00  0.00000000E+00
  0.00000000E+00  0.00000000E+00  0.00000000E+00
  0.00000000E+00  0.00000000E+00  0.00000000E+00
  0.00000000E+00  0.00000000E+00  0.00000000E+00
  0.00000000E+00  0.00000000E+00  0.00000000E+00
  0.00000000E+00  0.00000000E+00  0.00000000E+00
  0.00000000E+00  0.00000000E+00  0.00000000E+00
  0.00000000E+00  0.00000000E+00  0.00000000E+00
  0.00000000E+00  0.00000000E+00  0.00000000E+00
  0.00000000E+00  0.00000000E+00  0.00000000E+00
  0.00000000E+00  0.00000000E+00  0.00000000E+00
  0.00000000E+00  0.00000000E+00  0.00000000E+00
  0.00000000E+00  0.00000000E+00  0.00000000E+00
  0.00000000E+00  0.00000000E+00  0.00000000E+00
  0.00000000E+00  0.00000000E+00  0.00000000E+00
  0.00000000E+00  0.00000000E+00  0.00000000E+00
  0.00000000E+00  0.00000000E+00  0.00000000E+00
  0.00000000E+00  0.00000000E+00  0.00000000E+00
  0.00000000E+00  0.00000000E+00  0.00000000E+00
  0.00000000E+00  0.00000000E+00  0.00000000E+00
  0.00000000E+00  0.00000000E+00  0.00000000E+00
  0.00000000E+00  0.00000000E+00  0.00000000E+00
  0.00000000E+00  0.00000000E+00  0.00000000E+00
  0.00000000E+00  0.00000000E+00  0.00000000E+00
  0.00000000E+00  0.00000000E+00  0.00000000E+00
  0.00000000E+00  0.00000000E+00  0.00000000E+00
  0.00000000E+00  0.00000000E+00  0.00000000E+00
  0.00000000E+00  0.00000000E+00  0.00000000E+00
  0.00000000E+00  0.00000000E+00  0.00000000E+00
  0.00000000E+00  0.00000000E+00  0.00000000E+00
  0.00000000E+00  0.00000000E+00  0.00000000E+00
  0.00000000E+00  0.00000000E+00  0.00000000E+00
  0.00000000E+00  0.00000000E+00  0.00000000E+00
  0.00000000E+00  0.00000000E+00  0.00000000E+00
  0.00000000E+00  0.00000000E+00  0.00000000E+00
  0.00000000E+00  0.00000000E+00  0.00000000E+00
  0.00000000E+00  0.00000000E+00  0.00000000E+00
  0.00000000E+00  0.00000000E+00  0.00000000E+00
  0.00000000E+00  0.00000000E+00  0.00000000E+00
  0.00000000E+00  0.00000000E+00  0.00000000E+00
  0.00000000E+00  0.00000000E+00  0.00000000E+00
  0.00000000E+00  0.00000000E+00  0.00000000E+00
  0.00000000E+00  0.00000000E+00  0.00000000E+00
  0.00000000E+00  0.00000000E+00  0.00000000E+00
  0.00000000E+00  0.00000000E+00  0.00000000E+00
  0.00000000E+00  0.00000000E+00  0.00000000E+00
  0.00000000E+00  0.00000000E+00  0.00000000E+00
  0.00000000E+00  0.00000000E+00  0.00000000E+00
  0.00000000E+00  0.00000000E+00  0.00000000E+00
  0.00000000E+00  0.00000000E+00  0.00000000E+00
  0.00000000E+00  0.00000000E+00  0.00000000E+00
  0.00000000E+00  0.00000000E+00  0.00000000E+00
  0.00000000E+00  0.00000000E+00  0.00000000E+00
  0.00000000E+00  0.00000000E+00  0.00000000E+00
  0.00000000E+00  0.00000000E+00  0.00000000E+00
  0.00000000E+00  0.00000000E+00  0.00000000E+00
  0.00000000E+00  0.00000000E+00  0.00000000E+00
  0.00000000E+00  0.00000000E+00  0.00000000E+00
  0.00000000E+00  0.00000000E+00  0.00000000E+00
  0.00000000E+00  0.00000000E+00  0.00000000E+00
  0.00000000E+00  0.00000000E+00  0.00000000E+00
  0.00000000E+00  0.00000000E+00  0.00000000E+00
  0.00000000E+00  0.00000000E+00  0.00000000E+00
  0.00000000E+00  0.00000000E+00  0.00000000E+00
  0.00000000E+00  0.00000000E+00  0.00000000E+00
  0.00000000E+00  0.00000000E+00  0.00000000E+00
  0.00000000E+00  0.00000000E+00  0.00000000E+00
  0.00000000E+00  0.00000000E+00  0.00000000E+00
  0.00000000E+00  0.00000000E+00  0.00000000E+00
  0.00000000E+00  0.00000000E+00  0.00000000E+00
  0.00000000E+00  0.00000000E+00  0.00000000E+00
  0.00000000E+00  0.00000000E+00  0.00000000E+00
  0.00000000E+00  0.00000000E+00  0.00000000E+00
  0.00000000E+00  0.00000000E+00  0.00000000E+00
  0.00000000E+00  0.00000000E+00  0.00000000E+00
  0.00000000E+00  0.00000000E+00  0.00000000E+00
  0.00000000E+00  0.00000000E+00  0.00000000E+00
  0.00000000E+00  0.00000000E+00  0.00000000E+00
