Sandwich Zr1010 ZrO2 Zr1010             
   1.00000000000000     
     6.4506563916050581    0.0000000000000000    0.0000000000000000
     0.0000000000000000    6.3468526349255665    0.0000000000000000
     0.0000000000000000    0.0000000000000000   55.1531958123181596
   O    Zr
    64    70
Direct
  0.0161459609195731  0.2499999850000023  0.5082977349029036
  0.9838540390804269  0.7499999400000021  0.5082977349029036
  0.7016089931316216  0.2499999850000023  0.5297511612586092
  0.2983909468683734  0.7499999400000021  0.5297511612586092
  0.1381300439800981  0.2499999850000023  0.6354146442686925
  0.8618699560199019  0.7499999400000021  0.6354146442686925
  0.6530082476217061  0.2499999850000023  0.6474245023267855
  0.3469916923782890  0.7499999400000021  0.6474245023267855
  0.8073581912124226  0.2499999850000023  0.8221606928175262
  0.1926418087875774  0.7499999400000021  0.8221606928175262
  0.4829674153254118  0.2499999850000023  0.7962692366476531
  0.5170325246745833  0.7499999400000021  0.7962692366476531
  0.7838574383459047  0.2499999850000023  0.9100228550143612
  0.2161425616540953  0.7499999400000021  0.9100228550143612
  0.5320422897314216  0.2499999850000023  0.9439883370930175
  0.4679576502685734  0.7499999400000021  0.9439883370930175
  0.9971550659051189  0.2499999850000023  0.5772761895104779
  0.0028449340948811  0.7499999400000021  0.5772761895104779
  0.3194703452629710  0.2499999850000023  0.5540249906227928
  0.6805295947370240  0.7499999400000021  0.5540249906227928
  0.0023843488264887  0.2499999850000023  0.7133917291414491
  0.9976156511735113  0.7499999400000021  0.7133917291414491
  0.6539777084331249  0.2499999850000023  0.6956544590272742
  0.3460222315668702  0.7499999400000021  0.6956544590272742
  0.9836951599878105  0.2499999850000023  0.8623492413141776
  0.0163048400121895  0.7499999400000021  0.8623492413141776
  0.3234808586569855  0.2499999850000023  0.8363071900377150
  0.6765190813430095  0.7499999400000021  0.8363071900377150
  0.0155427434120838  0.2499999850000023  0.9898866732921547
  0.9844572565879162  0.7499999400000021  0.9898866732921547
  0.6548620051482104  0.2499999850000023  0.9842187304108521
  0.3451379348517918  0.7499999400000021  0.9842187304108521
  0.3192187501498225  0.9827686922368173  0.4877589432546472
  0.3192187501498225  0.5172312777631802  0.4877589432546472
  0.6807811748501820  0.0172313077631827  0.4877589432546472
  0.6807811748501820  0.4827686622368148  0.4877589432546472
  0.2574440086506797  0.0699819401510098  0.6720102170884559
  0.2574440086506797  0.4300180298489877  0.6720102170884559
  0.7425559163493247  0.9300180598489902  0.6720102170884559
  0.7425559163493247  0.5699819101510073  0.6720102170884559
  0.1768855910392588  0.9663950831629435  0.7801523658583776
  0.1768855910392588  0.5336048868370540  0.7801523658583776
  0.8231143339607456  0.0336049168370565  0.7801523658583776
  0.8231143339607456  0.4663950531629411  0.7801523658583776
  0.1865177096645780  0.0688674417985879  0.9364257424055680
  0.1865177096645780  0.4311325282014096  0.9364257424055680
  0.8134822153354264  0.9311325582014121  0.9364257424055680
  0.8134822153354264  0.5688674117985855  0.9364257424055680
  0.3129923229416391  0.0268015344654771  0.5946505006241196
  0.3129923229416391  0.4731984355345205  0.5946505006241196
  0.6870076020583653  0.9731984655345229  0.5946505006241196
  0.6870076020583653  0.5268015044654746  0.5946505006241196
  0.3191004349909718  0.9836396774323930  0.7342071810821338
  0.3191004349909718  0.5163602925676045  0.7342071810821338
  0.6808994900090326  0.0163603225676070  0.7342071810821338
  0.6808994900090326  0.4836396474323905  0.7342071810821338
  0.3236761615783550  0.0501461095664197  0.8787913521879389
  0.3236761615783550  0.4498538604335778  0.8787913521879389
  0.6763237634216495  0.9498538904335803  0.8787913521879389
  0.6763237634216495  0.5501460795664173  0.8787913521879389
  0.3194022437698862  0.0435094519542218  0.0127471276409068
  0.3194022437698862  0.4564905180457757  0.0127471276409068
  0.6805976812301182  0.9564905480457782  0.0127471276409068
  0.6805976812301182  0.5435094219542194  0.0127471276409068
  0.0950291657739442  0.7499998810000008  0.0664312552439412
  0.9049664982260524  0.2499999850000023  0.0664312552439412
  0.6553546134226096  0.7499998810000008  0.0872821230626712
  0.3446410355773892  0.2499999850000023  0.0872821270626716
  0.1527226911995641  0.7499998810000008  0.1110414189781110
  0.8472729728004325  0.2499999850000023  0.1110414189781110
  0.6410857052784849  0.7499998810000008  0.1331084097425688
  0.3589099437215140  0.2499999850000023  0.1331084097425688
  0.1376179742235948  0.7499998810000008  0.1569091370682756
  0.8623776897764017  0.2499999850000023  0.1569091370682756
  0.6349320141000590  0.7499998810000008  0.1801677028530833
  0.3650636348999399  0.2499999850000023  0.1801677028530833
  0.1317914994887701  0.7499998810000008  0.2033246205330812
  0.8682041645112264  0.2499999850000023  0.2033246205330812
  0.6282213739448963  0.7499998810000008  0.2264866973260169
  0.3717742750551025  0.2499999850000023  0.2264866973260169
  0.1313974691420015  0.7499998810000008  0.2502467217758451
  0.8685981948579951  0.2499999850000023  0.2502467217758451
  0.6284291340121513  0.7499998810000008  0.2740366355164952
  0.3715665149878475  0.2499999850000023  0.2740366355164952
  0.1307070667002961  0.7499998810000008  0.2969289572863829
  0.8692885972997004  0.2499999850000023  0.2969289572863829
  0.6346476243139136  0.7499998810000008  0.3205399179805042
  0.3653480246860852  0.2499999850000023  0.3205399179805042
  0.1366148825916937  0.7499998810000008  0.3438384616077244
  0.8633807814083028  0.2499999850000023  0.3438384616077244
  0.6412347173143402  0.7499998810000008  0.3673076001354545
  0.3587609316856586  0.2499999850000023  0.3673076001354545
  0.1523833073057475  0.7499998810000008  0.3892300269556515
  0.8476123566942491  0.2499999850000023  0.3892300269556515
  0.6494532996818450  0.7499998810000008  0.4130397749314483
  0.3505423493181539  0.2499999850000023  0.4130397749314483
  0.0892903198519193  0.7499998810000008  0.4342125375282677
  0.9107053441480772  0.2499999850000023  0.4342125375282677
  0.0000000000000000  0.0000000000000000  0.4775718391260924
  0.0000000000000000  0.4999999699999975  0.4775718391260924
  0.4999999699999975  0.0000000000000000  0.4546304826209919
  0.4999999699999975  0.4999999699999975  0.4546304826209919
  0.0000000000000000  0.0000000000000000  0.6085460091377541
  0.0000000000000000  0.4999999699999975  0.6085460091377541
  0.4999999699999975  0.0000000000000000  0.6268940038048427
  0.4999999699999975  0.4999999699999975  0.6268940038048356
  0.0000000000000000  0.0000000000000000  0.7456941938848445
  0.0000000000000000  0.4999999699999975  0.7456941938848445
  0.4999999699999975  0.0000000000000000  0.7681724637465379
  0.4999999699999975  0.4999999699999975  0.7681724637465379
  0.0000000000000000  0.0000000000000000  0.8914702353637978
  0.0000000000000000  0.4999999699999975  0.8914702353637978
  0.4999999699999975  0.0000000000000000  0.9139323118599165
  0.4999999699999975  0.4999999699999975  0.9139323118599165
  0.0000000000000000  0.0000000000000000  0.0226147911433756
  0.0000000000000000  0.4999999699999975  0.0226147911433756
  0.4999999699999975  0.0000000000000000  0.0444231471119281
  0.4999999699999975  0.4999999699999975  0.0444231471119281
  0.3528845493636297  0.2499999850000023  0.5168745274571052
  0.3243486962532458  0.7499999400000021  0.5662275980348923
  0.6756512287467658  0.2499999850000023  0.5662275980348923
  0.6471153756363748  0.7499999400000021  0.5168745274571052
  0.3483510675707393  0.2499999850000023  0.7063579999953333
  0.0798180211799462  0.7499999400000021  0.6732237333448552
  0.9201819038200583  0.2499999850000023  0.6732237333448552
  0.6516488574292651  0.7499999400000021  0.7063579999953333
  0.1276560070346164  0.2499999850000023  0.8063391271488314
  0.3708963649215278  0.7499999400000021  0.8539761544874693
  0.6291035600784767  0.2499999850000023  0.8539761544874693
  0.8723439179653880  0.7499999400000021  0.8063391271488314
  0.3355522642836632  0.2499999850000023  0.9764425014000651
  0.1192029225565747  0.7499999400000021  0.9517623338351342
  0.8807970024434297  0.2499999850000023  0.9517623338351342
  0.6644476607163412  0.7499999400000021  0.9764425014000651
 
  0.00000000E+00  0.00000000E+00  0.00000000E+00
  0.00000000E+00  0.00000000E+00  0.00000000E+00
  0.00000000E+00  0.00000000E+00  0.00000000E+00
  0.00000000E+00  0.00000000E+00  0.00000000E+00
  0.00000000E+00  0.00000000E+00  0.00000000E+00
  0.00000000E+00  0.00000000E+00  0.00000000E+00
  0.00000000E+00  0.00000000E+00  0.00000000E+00
  0.00000000E+00  0.00000000E+00  0.00000000E+00
  0.00000000E+00  0.00000000E+00  0.00000000E+00
  0.00000000E+00  0.00000000E+00  0.00000000E+00
  0.00000000E+00  0.00000000E+00  0.00000000E+00
  0.00000000E+00  0.00000000E+00  0.00000000E+00
  0.00000000E+00  0.00000000E+00  0.00000000E+00
  0.00000000E+00  0.00000000E+00  0.00000000E+00
  0.00000000E+00  0.00000000E+00  0.00000000E+00
  0.00000000E+00  0.00000000E+00  0.00000000E+00
  0.00000000E+00  0.00000000E+00  0.00000000E+00
  0.00000000E+00  0.00000000E+00  0.00000000E+00
  0.00000000E+00  0.00000000E+00  0.00000000E+00
  0.00000000E+00  0.00000000E+00  0.00000000E+00
  0.00000000E+00  0.00000000E+00  0.00000000E+00
  0.00000000E+00  0.00000000E+00  0.00000000E+00
  0.00000000E+00  0.00000000E+00  0.00000000E+00
  0.00000000E+00  0.00000000E+00  0.00000000E+00
  0.00000000E+00  0.00000000E+00  0.00000000E+00
  0.00000000E+00  0.00000000E+00  0.00000000E+00
  0.00000000E+00  0.00000000E+00  0.00000000E+00
  0.00000000E+00  0.00000000E+00  0.00000000E+00
  0.00000000E+00  0.00000000E+00  0.00000000E+00
  0.00000000E+00  0.00000000E+00  0.00000000E+00
  0.00000000E+00  0.00000000E+00  0.00000000E+00
  0.00000000E+00  0.00000000E+00  0.00000000E+00
  0.00000000E+00  0.00000000E+00  0.00000000E+00
  0.00000000E+00  0.00000000E+00  0.00000000E+00
  0.00000000E+00  0.00000000E+00  0.00000000E+00
  0.00000000E+00  0.00000000E+00  0.00000000E+00
  0.00000000E+00  0.00000000E+00  0.00000000E+00
  0.00000000E+00  0.00000000E+00  0.00000000E+00
  0.00000000E+00  0.00000000E+00  0.00000000E+00
  0.00000000E+00  0.00000000E+00  0.00000000E+00
  0.00000000E+00  0.00000000E+00  0.00000000E+00
  0.00000000E+00  0.00000000E+00  0.00000000E+00
  0.00000000E+00  0.00000000E+00  0.00000000E+00
  0.00000000E+00  0.00000000E+00  0.00000000E+00
  0.00000000E+00  0.00000000E+00  0.00000000E+00
  0.00000000E+00  0.00000000E+00  0.00000000E+00
  0.00000000E+00  0.00000000E+00  0.00000000E+00
  0.00000000E+00  0.00000000E+00  0.00000000E+00
  0.00000000E+00  0.00000000E+00  0.00000000E+00
  0.00000000E+00  0.00000000E+00  0.00000000E+00
  0.00000000E+00  0.00000000E+00  0.00000000E+00
  0.00000000E+00  0.00000000E+00  0.00000000E+00
  0.00000000E+00  0.00000000E+00  0.00000000E+00
  0.00000000E+00  0.00000000E+00  0.00000000E+00
  0.00000000E+00  0.00000000E+00  0.00000000E+00
  0.00000000E+00  0.00000000E+00  0.00000000E+00
  0.00000000E+00  0.00000000E+00  0.00000000E+00
  0.00000000E+00  0.00000000E+00  0.00000000E+00
  0.00000000E+00  0.00000000E+00  0.00000000E+00
  0.00000000E+00  0.00000000E+00  0.00000000E+00
  0.00000000E+00  0.00000000E+00  0.00000000E+00
  0.00000000E+00  0.00000000E+00  0.00000000E+00
  0.00000000E+00  0.00000000E+00  0.00000000E+00
  0.00000000E+00  0.00000000E+00  0.00000000E+00
  0.00000000E+00  0.00000000E+00  0.00000000E+00
  0.00000000E+00  0.00000000E+00  0.00000000E+00
  0.00000000E+00  0.00000000E+00  0.00000000E+00
  0.00000000E+00  0.00000000E+00  0.00000000E+00
  0.00000000E+00  0.00000000E+00  0.00000000E+00
  0.00000000E+00  0.00000000E+00  0.00000000E+00
  0.00000000E+00  0.00000000E+00  0.00000000E+00
  0.00000000E+00  0.00000000E+00  0.00000000E+00
  0.00000000E+00  0.00000000E+00  0.00000000E+00
  0.00000000E+00  0.00000000E+00  0.00000000E+00
  0.00000000E+00  0.00000000E+00  0.00000000E+00
  0.00000000E+00  0.00000000E+00  0.00000000E+00
  0.00000000E+00  0.00000000E+00  0.00000000E+00
  0.00000000E+00  0.00000000E+00  0.00000000E+00
  0.00000000E+00  0.00000000E+00  0.00000000E+00
  0.00000000E+00  0.00000000E+00  0.00000000E+00
  0.00000000E+00  0.00000000E+00  0.00000000E+00
  0.00000000E+00  0.00000000E+00  0.00000000E+00
  0.00000000E+00  0.00000000E+00  0.00000000E+00
  0.00000000E+00  0.00000000E+00  0.00000000E+00
  0.00000000E+00  0.00000000E+00  0.00000000E+00
  0.00000000E+00  0.00000000E+00  0.00000000E+00
  0.00000000E+00  0.00000000E+00  0.00000000E+00
  0.00000000E+00  0.00000000E+00  0.00000000E+00
  0.00000000E+00  0.00000000E+00  0.00000000E+00
  0.00000000E+00  0.00000000E+00  0.00000000E+00
  0.00000000E+00  0.00000000E+00  0.00000000E+00
  0.00000000E+00  0.00000000E+00  0.00000000E+00
  0.00000000E+00  0.00000000E+00  0.00000000E+00
  0.00000000E+00  0.00000000E+00  0.00000000E+00
  0.00000000E+00  0.00000000E+00  0.00000000E+00
  0.00000000E+00  0.00000000E+00  0.00000000E+00
  0.00000000E+00  0.00000000E+00  0.00000000E+00
  0.00000000E+00  0.00000000E+00  0.00000000E+00
  0.00000000E+00  0.00000000E+00  0.00000000E+00
  0.00000000E+00  0.00000000E+00  0.00000000E+00
  0.00000000E+00  0.00000000E+00  0.00000000E+00
  0.00000000E+00  0.00000000E+00  0.00000000E+00
  0.00000000E+00  0.00000000E+00  0.00000000E+00
  0.00000000E+00  0.00000000E+00  0.00000000E+00
  0.00000000E+00  0.00000000E+00  0.00000000E+00
  0.00000000E+00  0.00000000E+00  0.00000000E+00
  0.00000000E+00  0.00000000E+00  0.00000000E+00
  0.00000000E+00  0.00000000E+00  0.00000000E+00
  0.00000000E+00  0.00000000E+00  0.00000000E+00
  0.00000000E+00  0.00000000E+00  0.00000000E+00
  0.00000000E+00  0.00000000E+00  0.00000000E+00
  0.00000000E+00  0.00000000E+00  0.00000000E+00
  0.00000000E+00  0.00000000E+00  0.00000000E+00
  0.00000000E+00  0.00000000E+00  0.00000000E+00
  0.00000000E+00  0.00000000E+00  0.00000000E+00
  0.00000000E+00  0.00000000E+00  0.00000000E+00
  0.00000000E+00  0.00000000E+00  0.00000000E+00
  0.00000000E+00  0.00000000E+00  0.00000000E+00
  0.00000000E+00  0.00000000E+00  0.00000000E+00
  0.00000000E+00  0.00000000E+00  0.00000000E+00
  0.00000000E+00  0.00000000E+00  0.00000000E+00
  0.00000000E+00  0.00000000E+00  0.00000000E+00
  0.00000000E+00  0.00000000E+00  0.00000000E+00
  0.00000000E+00  0.00000000E+00  0.00000000E+00
  0.00000000E+00  0.00000000E+00  0.00000000E+00
  0.00000000E+00  0.00000000E+00  0.00000000E+00
  0.00000000E+00  0.00000000E+00  0.00000000E+00
  0.00000000E+00  0.00000000E+00  0.00000000E+00
  0.00000000E+00  0.00000000E+00  0.00000000E+00
  0.00000000E+00  0.00000000E+00  0.00000000E+00
  0.00000000E+00  0.00000000E+00  0.00000000E+00
  0.00000000E+00  0.00000000E+00  0.00000000E+00
  0.00000000E+00  0.00000000E+00  0.00000000E+00
  0.00000000E+00  0.00000000E+00  0.00000000E+00
