Sandwich Zr1010 ZrO2 Zr1010             
   1.00000000000000     
     6.4506563916050581   0.0000000000000000    0.0000000000000000
     0.0000000000000000   6.3468526349255665    0.0000000000000000
     0.0000000000000000   0.0000000000000000   55.1531958123181596
   O    Zr
    64    70
Direct
  0.0161459609195702  0.2499999850000023  0.5082977349029038
 -0.0161459609195702  0.7499999400000021  0.5082977349029038
  0.7016089931316183  0.2499999850000023  0.5297511612586062
  0.2983909468683756  0.7499999400000021  0.5297511612586062
  0.1381300439801015  0.2499999850000023  0.6354146442686927
 -0.1381300439801015  0.7499999400000021  0.6354146442686927
  0.6530082476217036  0.2499999850000023  0.6474245023267834
  0.3469916923782914  0.7499999400000021  0.6474245023267834
 -0.1926418087875791  0.2499999850000023  0.8221606928175240
  0.1926418087875791  0.7499999400000021  0.8221606928175240
  0.4829674153254140  0.2499999850000023  0.7962692366476499
  0.5170325246745814  0.7499999400000021  0.7962692366476499
 -0.2161425616540986  0.2499999850000023  0.9100228550143619
  0.2161425616540986  0.7499999400000021  0.9100228550143619
  0.5320422897314192  0.2499999850000023  0.9439883370930204
  0.4679576502685765  0.7499999400000021  0.9439883370930204
 -0.0028449340948832  0.2499999850000023  0.5772761895104763
  0.0028449340948832  0.7499999400000021  0.5772761895104763
  0.3194703452629741  0.2499999850000023  0.5540249906227926
  0.6805295947370219  0.7499999400000021  0.5540249906227926
  0.0023843488264866  0.2499999850000023  0.7133917291414476
 -0.0023843488264866  0.7499999400000021  0.7133917291414476
  0.6539777084331245  0.2499999850000023  0.6956544590272717
  0.3460222315668708  0.7499999400000021  0.6956544590272717
 -0.0163048400121913  0.2499999850000023  0.8623492413141765
  0.0163048400121913  0.7499999400000021  0.8623492413141765
  0.3234808586569842  0.2499999850000023  0.8363071900377173
  0.6765190813430109  0.7499999400000021  0.8363071900377173
  0.0155427434120805  0.2499999850000023  0.9898866732921527
 -0.0155427434120805  0.7499999400000021  0.9898866732921527
  0.6548620051482069  0.2499999850000023  0.9842187304108553
  0.3451379348517885  0.7499999400000021  0.9842187304108553
  0.3192187501498190 -0.0172313077631795  0.4877589432546479
  0.3192187501498190  0.5172312777631768  0.4877589432546479
  0.6807811748501852  0.0172313077631796  0.4877589432546479
  0.6807811748501852  0.4827686622368181  0.4877589432546479
  0.2574440086506803  0.0699819401510120  0.6720102170884575
  0.2574440086506803  0.4300180298489854  0.6720102170884575
  0.7425559163493243 -0.0699819401510119  0.6720102170884575
  0.7425559163493243  0.5699819101510095  0.6720102170884575
  0.1768855910392593 -0.0336049168370566  0.7801523658583801
  0.1768855910392593  0.5336048868370543  0.7801523658583801
  0.8231143339607448  0.0336049168370566  0.7801523658583801
  0.8231143339607448  0.4663950531629406  0.7801523658583801
  0.1865177096645806  0.0688674417985881  0.9364257424055673
  0.1865177096645806  0.4311325282014092  0.9364257424055673
  0.8134822153354235 -0.0688674417985881  0.9364257424055673
  0.8134822153354235  0.5688674117985861  0.9364257424055673
  0.3129923229416376  0.0268015344654799  0.5946505006241194
  0.3129923229416376  0.4731984355345172  0.5946505006241194
  0.6870076020583665 -0.0268015344654799  0.5946505006241194
  0.6870076020583665  0.5268015044654775  0.5946505006241194
  0.3191004349909707 -0.0163603225676099  0.7342071810821346
  0.3191004349909707  0.5163602925676075  0.7342071810821346
  0.6808994900090344  0.0163603225676099  0.7342071810821346
  0.6808994900090344  0.4836396474323875  0.7342071810821346
  0.3236761615783571  0.0501461095664162  0.8787913521879380
  0.3236761615783571  0.4498538604335811  0.8787913521879384
  0.6763237634216475 -0.0501461095664162  0.8787913521879380
  0.6763237634216475  0.5501460795664141  0.8787913521879382
  0.3194022437698857  0.0435094519542226  0.0127471276409062
  0.3194022437698858  0.4564905180457747  0.0127471276409062
  0.6805976812301180 -0.0435094519542226  0.0127471276409062
  0.6805976812301180  0.5435094219542199  0.0127471276409062
  0.0950291657739450  0.7499998810000008  0.0664312552439443
  0.9049664982260512  0.2499999850000023  0.0664312552439443
  0.6553546134226080  0.7499998810000008  0.0872821230626683
  0.3446410355773901  0.2499999850000023  0.0872821270626687
  0.1527226911995662  0.7499998810000008  0.1110414189781095
  0.8472729728004308  0.2499999850000023  0.1110414189781095
  0.6410857052784814  0.7499998810000008  0.1331084097425689
  0.3589099437215170  0.2499999850000023  0.1331084097425689
  0.1376179742235914  0.7499998810000008  0.1569091370682727
  0.8623776897764051  0.2499999850000023  0.1569091370682727
  0.6349320141000592  0.7499998810000008  0.1801677028530828
  0.3650636348999393  0.2499999850000023  0.1801677028530828
  0.1317914994887713  0.7499998810000008  0.2033246205330814
  0.8682041645112256  0.2499999850000023  0.2033246205330814
  0.6282213739448975  0.7499998810000008  0.2264866973260160
  0.3717742750551025  0.2499999850000023  0.2264866973260160
  0.1313974691420002  0.7499998810000008  0.2502467217758441
  0.8685981948579965  0.2499999850000023  0.2502467217758441
  0.6284291340121538  0.7499998810000008  0.2740366355164987
  0.3715665149878453  0.2499999850000023  0.2740366355164987
  0.1307070667002934  0.7499998810000008  0.2969289572863807
  0.8692885972997030  0.2499999850000023  0.2969289572863807
  0.6346476243139153  0.7499998810000008  0.3205399179805013
  0.3653480246860836  0.2499999850000023  0.3205399179805013
  0.1366148825916927  0.7499998810000008  0.3438384616077249
  0.8633807814083039  0.2499999850000023  0.3438384616077249
  0.6412347173143428  0.7499998810000008  0.3673076001354551
  0.3587609316856566  0.2499999850000023  0.3673076001354551
  0.1523833073057466  0.7499998810000008  0.3892300269556507
  0.8476123566942495  0.2499999850000023  0.3892300269556507
  0.6494532996818470  0.7499998810000008  0.4130397749314480
  0.3505423493181525  0.2499999850000023  0.4130397749314480
  0.0892903198519217  0.7499998810000008  0.4342125375282662
  0.9107053441480750  0.2499999850000023  0.4342125375282662
  0.0000000000000000  0.0000000000000000  0.4775718391260912
  0.0000000000000000  0.4999999699999975  0.4775718391260912
  0.4999999699999975  0.0000000000000000  0.4546304826209948
  0.4999999699999975  0.4999999699999975  0.4546304826209946
  0.0000000000000000  0.0000000000000000  0.6085460091377556
  0.0000000000000000  0.4999999699999975  0.6085460091377556
  0.4999999699999975  0.0000000000000000  0.6268940038048393
  0.4999999699999975  0.4999999699999975  0.6268940038048392
  0.0000000000000000  0.0000000000000000  0.7456941938848467
  0.0000000000000000  0.4999999699999975  0.7456941938848467
  0.4999999699999975  0.0000000000000000  0.7681724637465407
  0.4999999699999975  0.4999999699999975  0.7681724637465407
  0.0000000000000000  0.0000000000000000  0.8914702353637971
  0.0000000000000000  0.4999999699999975  0.8914702353637971
  0.4999999699999975  0.0000000000000000  0.9139323118599191
  0.4999999699999975  0.4999999699999975  0.9139323118599191
  0.0000000000000000  0.0000000000000000  0.0226147911433783
  0.0000000000000000  0.4999999699999975  0.0226147911433783
  0.4999999699999975  0.0000000000000000  0.0444231471119259
  0.4999999699999975  0.4999999699999975  0.0444231471119259
  0.3528845493636301  0.2499999850000023  0.5168745274571045
  0.3243486962532424  0.7499999400000021  0.5662275980348923
  0.6756512287467625  0.2499999850000023  0.5662275980348923
  0.6471153756363747  0.7499999400000021  0.5168745274571045
  0.3483510675707427  0.2499999850000023  0.7063579999953346
  0.0798180211799479  0.7499999400000021  0.6732237333448530
  0.9201819038200564  0.2499999850000023  0.6732237333448530
  0.6516488574292626  0.7499999400000021  0.7063579999953346
  0.1276560070346148  0.2499999850000023  0.8063391271488278
  0.3708963649215288  0.7499999400000021  0.8539761544874667
  0.6291035600784748  0.2499999850000023  0.8539761544874667
  0.8723439179653899  0.7499999400000021  0.8063391271488278
  0.3355522642836616  0.2499999850000023  0.9764425014000663
  0.1192029225565739  0.7499999400000021  0.9517623338351350
  0.8807970024434301  0.2499999850000023  0.9517623338351350
  0.6644476607163434  0.7499999400000021  0.9764425014000663
 
  0.00000000E+00  0.00000000E+00  0.00000000E+00
  0.00000000E+00  0.00000000E+00  0.00000000E+00
  0.00000000E+00  0.00000000E+00  0.00000000E+00
  0.00000000E+00  0.00000000E+00  0.00000000E+00
  0.00000000E+00  0.00000000E+00  0.00000000E+00
  0.00000000E+00  0.00000000E+00  0.00000000E+00
  0.00000000E+00  0.00000000E+00  0.00000000E+00
  0.00000000E+00  0.00000000E+00  0.00000000E+00
  0.00000000E+00  0.00000000E+00  0.00000000E+00
  0.00000000E+00  0.00000000E+00  0.00000000E+00
  0.00000000E+00  0.00000000E+00  0.00000000E+00
  0.00000000E+00  0.00000000E+00  0.00000000E+00
  0.00000000E+00  0.00000000E+00  0.00000000E+00
  0.00000000E+00  0.00000000E+00  0.00000000E+00
  0.00000000E+00  0.00000000E+00  0.00000000E+00
  0.00000000E+00  0.00000000E+00  0.00000000E+00
  0.00000000E+00  0.00000000E+00  0.00000000E+00
  0.00000000E+00  0.00000000E+00  0.00000000E+00
  0.00000000E+00  0.00000000E+00  0.00000000E+00
  0.00000000E+00  0.00000000E+00  0.00000000E+00
  0.00000000E+00  0.00000000E+00  0.00000000E+00
  0.00000000E+00  0.00000000E+00  0.00000000E+00
  0.00000000E+00  0.00000000E+00  0.00000000E+00
  0.00000000E+00  0.00000000E+00  0.00000000E+00
  0.00000000E+00  0.00000000E+00  0.00000000E+00
  0.00000000E+00  0.00000000E+00  0.00000000E+00
  0.00000000E+00  0.00000000E+00  0.00000000E+00
  0.00000000E+00  0.00000000E+00  0.00000000E+00
  0.00000000E+00  0.00000000E+00  0.00000000E+00
  0.00000000E+00  0.00000000E+00  0.00000000E+00
  0.00000000E+00  0.00000000E+00  0.00000000E+00
  0.00000000E+00  0.00000000E+00  0.00000000E+00
  0.00000000E+00  0.00000000E+00  0.00000000E+00
  0.00000000E+00  0.00000000E+00  0.00000000E+00
  0.00000000E+00  0.00000000E+00  0.00000000E+00
  0.00000000E+00  0.00000000E+00  0.00000000E+00
  0.00000000E+00  0.00000000E+00  0.00000000E+00
  0.00000000E+00  0.00000000E+00  0.00000000E+00
  0.00000000E+00  0.00000000E+00  0.00000000E+00
  0.00000000E+00  0.00000000E+00  0.00000000E+00
  0.00000000E+00  0.00000000E+00  0.00000000E+00
  0.00000000E+00  0.00000000E+00  0.00000000E+00
  0.00000000E+00  0.00000000E+00  0.00000000E+00
  0.00000000E+00  0.00000000E+00  0.00000000E+00
  0.00000000E+00  0.00000000E+00  0.00000000E+00
  0.00000000E+00  0.00000000E+00  0.00000000E+00
  0.00000000E+00  0.00000000E+00  0.00000000E+00
  0.00000000E+00  0.00000000E+00  0.00000000E+00
  0.00000000E+00  0.00000000E+00  0.00000000E+00
  0.00000000E+00  0.00000000E+00  0.00000000E+00
  0.00000000E+00  0.00000000E+00  0.00000000E+00
  0.00000000E+00  0.00000000E+00  0.00000000E+00
  0.00000000E+00  0.00000000E+00  0.00000000E+00
  0.00000000E+00  0.00000000E+00  0.00000000E+00
  0.00000000E+00  0.00000000E+00  0.00000000E+00
  0.00000000E+00  0.00000000E+00  0.00000000E+00
  0.00000000E+00  0.00000000E+00  0.00000000E+00
  0.00000000E+00  0.00000000E+00  0.00000000E+00
  0.00000000E+00  0.00000000E+00  0.00000000E+00
  0.00000000E+00  0.00000000E+00  0.00000000E+00
  0.00000000E+00  0.00000000E+00  0.00000000E+00
  0.00000000E+00  0.00000000E+00  0.00000000E+00
  0.00000000E+00  0.00000000E+00  0.00000000E+00
  0.00000000E+00  0.00000000E+00  0.00000000E+00
  0.00000000E+00  0.00000000E+00  0.00000000E+00
  0.00000000E+00  0.00000000E+00  0.00000000E+00
  0.00000000E+00  0.00000000E+00  0.00000000E+00
  0.00000000E+00  0.00000000E+00  0.00000000E+00
  0.00000000E+00  0.00000000E+00  0.00000000E+00
  0.00000000E+00  0.00000000E+00  0.00000000E+00
  0.00000000E+00  0.00000000E+00  0.00000000E+00
  0.00000000E+00  0.00000000E+00  0.00000000E+00
  0.00000000E+00  0.00000000E+00  0.00000000E+00
  0.00000000E+00  0.00000000E+00  0.00000000E+00
  0.00000000E+00  0.00000000E+00  0.00000000E+00
  0.00000000E+00  0.00000000E+00  0.00000000E+00
  0.00000000E+00  0.00000000E+00  0.00000000E+00
  0.00000000E+00  0.00000000E+00  0.00000000E+00
  0.00000000E+00  0.00000000E+00  0.00000000E+00
  0.00000000E+00  0.00000000E+00  0.00000000E+00
  0.00000000E+00  0.00000000E+00  0.00000000E+00
  0.00000000E+00  0.00000000E+00  0.00000000E+00
  0.00000000E+00  0.00000000E+00  0.00000000E+00
  0.00000000E+00  0.00000000E+00  0.00000000E+00
  0.00000000E+00  0.00000000E+00  0.00000000E+00
  0.00000000E+00  0.00000000E+00  0.00000000E+00
  0.00000000E+00  0.00000000E+00  0.00000000E+00
  0.00000000E+00  0.00000000E+00  0.00000000E+00
  0.00000000E+00  0.00000000E+00  0.00000000E+00
  0.00000000E+00  0.00000000E+00  0.00000000E+00
  0.00000000E+00  0.00000000E+00  0.00000000E+00
  0.00000000E+00  0.00000000E+00  0.00000000E+00
  0.00000000E+00  0.00000000E+00  0.00000000E+00
  0.00000000E+00  0.00000000E+00  0.00000000E+00
  0.00000000E+00  0.00000000E+00  0.00000000E+00
  0.00000000E+00  0.00000000E+00  0.00000000E+00
  0.00000000E+00  0.00000000E+00  0.00000000E+00
  0.00000000E+00  0.00000000E+00  0.00000000E+00
  0.00000000E+00  0.00000000E+00  0.00000000E+00
  0.00000000E+00  0.00000000E+00  0.00000000E+00
  0.00000000E+00  0.00000000E+00  0.00000000E+00
  0.00000000E+00  0.00000000E+00  0.00000000E+00
  0.00000000E+00  0.00000000E+00  0.00000000E+00
  0.00000000E+00  0.00000000E+00  0.00000000E+00
  0.00000000E+00  0.00000000E+00  0.00000000E+00
  0.00000000E+00  0.00000000E+00  0.00000000E+00
  0.00000000E+00  0.00000000E+00  0.00000000E+00
  0.00000000E+00  0.00000000E+00  0.00000000E+00
  0.00000000E+00  0.00000000E+00  0.00000000E+00
  0.00000000E+00  0.00000000E+00  0.00000000E+00
  0.00000000E+00  0.00000000E+00  0.00000000E+00
  0.00000000E+00  0.00000000E+00  0.00000000E+00
  0.00000000E+00  0.00000000E+00  0.00000000E+00
  0.00000000E+00  0.00000000E+00  0.00000000E+00
  0.00000000E+00  0.00000000E+00  0.00000000E+00
  0.00000000E+00  0.00000000E+00  0.00000000E+00
  0.00000000E+00  0.00000000E+00  0.00000000E+00
  0.00000000E+00  0.00000000E+00  0.00000000E+00
  0.00000000E+00  0.00000000E+00  0.00000000E+00
  0.00000000E+00  0.00000000E+00  0.00000000E+00
  0.00000000E+00  0.00000000E+00  0.00000000E+00
  0.00000000E+00  0.00000000E+00  0.00000000E+00
  0.00000000E+00  0.00000000E+00  0.00000000E+00
  0.00000000E+00  0.00000000E+00  0.00000000E+00
  0.00000000E+00  0.00000000E+00  0.00000000E+00
  0.00000000E+00  0.00000000E+00  0.00000000E+00
  0.00000000E+00  0.00000000E+00  0.00000000E+00
  0.00000000E+00  0.00000000E+00  0.00000000E+00
  0.00000000E+00  0.00000000E+00  0.00000000E+00
  0.00000000E+00  0.00000000E+00  0.00000000E+00
  0.00000000E+00  0.00000000E+00  0.00000000E+00
  0.00000000E+00  0.00000000E+00  0.00000000E+00
  0.00000000E+00  0.00000000E+00  0.00000000E+00
  0.00000000E+00  0.00000000E+00  0.00000000E+00
