Sandwich Zr1010 ZrO2 Zr1010             
   1.00000000000000     
     5.5967998505000001    0.0000000000000000    0.0000000000000000
     0.0000000000000000    5.1479001044999997    0.0000000000000000
     0.0000000000000000    0.0000000000000000   50.7636718750000000
   O    Zr
    64    70
Direct
  0.0211095214417899  0.2499999850000023  0.5134856622999432
  0.9788904785582097  0.7499999400000021  0.5134856622999432
  0.6938579876449601  0.2499999850000023  0.5354756717381387
  0.3061419523550344  0.7499999400000021  0.5354756717381387
  0.1803319349431551  0.2499999850000023  0.6309168573222426
  0.8196680650568453  0.7499999400000021  0.6309168573222426
  0.7804946183561861  0.2499999850000023  0.6307472714551021
  0.2195053216438090  0.7499999400000021  0.6307472714551021
  0.8185882431123543  0.2499999850000023  0.8211060946013043
  0.1814117568876457  0.7499999400000021  0.8211060946013043
  0.4886415403994190  0.2499999850000023  0.7953846775317455
  0.5113583996005761  0.7499999400000021  0.7953846775317455
  0.7893736537932001  0.2499999850000023  0.9090272013362422
  0.2106263462068000  0.7499999400000021  0.9090272013362422
  0.5323575653155259  0.2499999850000023  0.9423099985901896
  0.4676423746844692  0.7499999400000021  0.9423099985901896
  0.9624740355395318  0.2499999850000023  0.5760112050391630
  0.0375259644604682  0.7499999400000021  0.5760112050391630
  0.2790050393841464  0.2499999850000023  0.5541581065250398
  0.7209949006158488  0.7499999400000021  0.5541581065250398
  0.0034290411518605  0.2499999850000023  0.7107320605512847
 -0.0034290411518606  0.7499999400000021  0.7107320605512847
  0.6601091906745830  0.2499999850000023  0.6943872908431202
  0.3398907493254126  0.7499999400000021  0.6943872908431202
  0.9862087780670851  0.2499999850000023  0.8615216298086944
  0.0137912219329147  0.7499999400000021  0.8615216298086944
  0.3271038122049754  0.2499999850000023  0.8355918071614469
  0.6728961277950198  0.7499999400000021  0.8355918071614469
  0.0112100135327689  0.2499999850000023  0.9889663693764315
  0.9887899864672315  0.7499999400000021  0.9889663693764315
  0.6556180241396516  0.2499999850000023  0.9816130743762399
  0.3443819158603503  0.7499999400000021  0.9816130743762399
  0.3232034889185313  0.9593350150662771  0.4933663981358219
  0.3232034889185313  0.5406649549337205  0.4933663981358219
  0.6767964360814731  0.0406649849337229  0.4933663981358219
  0.6767964360814731  0.4593349850662746  0.4933663981358219
  0.2742978253557548  0.0495280374459817  0.6673180909719375
  0.2742978253557548  0.4504719325540157  0.6673180909719375
  0.7257020996442495  0.9504719625540182  0.6673180909719375
  0.7257020996442495  0.5495280074459793  0.6673180909719375
  0.1765396691374319  0.9682285608587367  0.7789103457831055
  0.1765396691374319  0.5317714091412609  0.7789103457831055
  0.8234602558625723  0.0317714391412637  0.7789103457831055
  0.8234602558625723  0.4682285308587340  0.7789103457831055
  0.1882488490959957  0.0687267076345464  0.9358791505443275
  0.1882488490959957  0.4312732623654511  0.9358791505443275
  0.8117510759040089  0.9312732923654534  0.9358791505443275
  0.8117510759040089  0.5687266776345441  0.9358791505443275
  0.3286627293012547  0.0417257063807401  0.5954765002269642
  0.3286627293012547  0.4582742636192574  0.5954765002269642
  0.6713371956987499  0.9582742936192594  0.5954765002269642
  0.6713371956987499  0.5417256763807381  0.5954765002269642
  0.3183973324931627  0.9919945132841328  0.7330502728510849
  0.3183973324931627  0.5080054567158647  0.7330502728510849
  0.6816025925068415  0.0080054867158677  0.7330502728510849
  0.6816025925068415  0.4919944832841296  0.7330502728510849
  0.3239181447758683  0.0463785546979977  0.8780750466827663
  0.3239181447758683  0.4536214153019997  0.8780750466827663
  0.6760817802241365  0.9536214453020023  0.8780750466827663
  0.6760817802241365  0.5463785246979952  0.8780750466827663
  0.3173791354927291  0.0369969880072730  0.0107735618843545
  0.3173791354927291  0.4630029819927245  0.0107735618843545
  0.6826207895072761  0.9630030119927269  0.0107735618843545
  0.6826207895072761  0.5369969580072707  0.0107735618843545
  0.0931857778220306  0.7499998810000008  0.0667874881947422
  0.9068098861779660  0.2499999850000023  0.0667874881947422
  0.6452249271771979  0.7499998810000008  0.0873529341356823
  0.3547707218228011  0.2499999850000023  0.0873529381356827
  0.1476293602830159  0.7499998810000008  0.1120853343144632
  0.8523663037169807  0.2499999850000023  0.1120853343144632
  0.6456704534515600  0.7499998810000008  0.1343576773364348
  0.3543251955484388  0.2499999850000023  0.1343576773364348
  0.1406638573044973  0.7499998810000008  0.1585037426535804
  0.8593318066954990  0.2499999850000023  0.1585037426535804
  0.6335749695069173  0.7499998810000008  0.1816247396748921
  0.3664206794930812  0.2499999850000023  0.1816247396748921
  0.1315770375760628  0.7499998810000008  0.2051298021534591
  0.8684186264239336  0.2499999850000023  0.2051298021534591
  0.6290895816118499  0.7499998810000008  0.2283892334341959
  0.3709060673881492  0.2499999850000023  0.2283892334341959
  0.1287608738824043  0.7499998810000008  0.2519202627470047
  0.8712347901175922  0.2499999850000023  0.2519202627470047
  0.6293447480947351  0.7499998810000008  0.2753072241723792
  0.3706509009052639  0.2499999850000023  0.2753072241723792
  0.1311008427733071  0.7499998810000008  0.2987696306516425
  0.8688948212266890  0.2499999850000023  0.2987696306516425
  0.6344303434608526  0.7499998810000008  0.3221591825543307
  0.3655653055391460  0.2499999850000023  0.3221591825543307
  0.1411461919573558  0.7499998810000008  0.3454875293309824
  0.8588494720426408  0.2499999850000023  0.3454875293309824
  0.6475712925285617  0.7499998810000008  0.3692098080224207
  0.3524243564714364  0.2499999850000023  0.3692098080224207
  0.1498275399141648  0.7499998810000008  0.3923408839259768
  0.8501681240858318  0.2499999850000023  0.3923408839259768
  0.6416741774499729  0.7499998810000008  0.4156223902669176
  0.3583214715500261  0.2499999850000023  0.4156223902669176
  0.0784838434322979  0.7499998810000008  0.4379303376928707
  0.9215118205676992  0.2499999850000023  0.4379303376928707
  0.0000000000000000  0.0000000000000000  0.4837527346487018
  0.0000000000000000  0.4999999699999975  0.4837527346487018
  0.4999999699999975  0.0000000000000000  0.4595050987181756
  0.4999999699999975  0.4999999699999975  0.4595050987181756
  0.0000000000000000  0.0000000000000000  0.6063632644133927
  0.0000000000000000  0.4999999699999975  0.6063632644133927
  0.4999999699999975  0.0000000000000000  0.6330139538374119
  0.4999999699999975  0.4999999699999975  0.6330139538374048
  0.0000000000000000  0.0000000000000000  0.7440677358773680
  0.0000000000000000  0.4999999699999975  0.7440677358773680
  0.4999999699999975  0.0000000000000000  0.7671511484139932
  0.4999999699999975  0.4999999699999975  0.7671511484139932
  0.0000000000000000  0.0000000000000000  0.8902827530269873
  0.0000000000000000  0.4999999699999975  0.8902827530269873
  0.4999999699999975  0.0000000000000000  0.9128072956739887
  0.4999999699999975  0.4999999699999975  0.9128072956739887
  0.0000000000000000  0.0000000000000000  0.0218444221387507
  0.0000000000000000  0.4999999699999975  0.0218444221387507
  0.4999999699999975  0.0000000000000000  0.0427548188651936
  0.4999999699999975  0.4999999699999975  0.0427548188651936
  0.3780772283049161  0.2499999850000023  0.5189355836029581
  0.3966975967195771  0.7499999400000021  0.5722448426028862
  0.6033023282804348  0.2499999850000023  0.5722448426028862
  0.6219226966950888  0.7499999400000021  0.5189355836029581
  0.3507943651496909  0.2499999850000023  0.7035514515102932
  0.0754030139169176  0.7499999400000021  0.6686558773454031
  0.9245969110830869  0.2499999850000023  0.6686558773454031
  0.6492055598503134  0.7499999400000021  0.7035514515102932
  0.1320473462546220  0.2499999850000023  0.8053363559199923
  0.3680228732936183  0.7499999400000021  0.8529914669003538
  0.6319770517063860  0.2499999850000023  0.8529914669003538
  0.8679525787453825  0.7499999400000021  0.8053363559199923
  0.3327108726982896  0.2499999850000023  0.9750999094584331
  0.1170219694064908  0.7499999400000021  0.9507400530667178
  0.8829779555935138  0.2499999850000023  0.9507400530667178
  0.6672890523017154  0.7499999400000021  0.9750999094584331
 
  0.00000000E+00  0.00000000E+00  0.00000000E+00
  0.00000000E+00  0.00000000E+00  0.00000000E+00
  0.00000000E+00  0.00000000E+00  0.00000000E+00
  0.00000000E+00  0.00000000E+00  0.00000000E+00
  0.00000000E+00  0.00000000E+00  0.00000000E+00
  0.00000000E+00  0.00000000E+00  0.00000000E+00
  0.00000000E+00  0.00000000E+00  0.00000000E+00
  0.00000000E+00  0.00000000E+00  0.00000000E+00
  0.00000000E+00  0.00000000E+00  0.00000000E+00
  0.00000000E+00  0.00000000E+00  0.00000000E+00
  0.00000000E+00  0.00000000E+00  0.00000000E+00
  0.00000000E+00  0.00000000E+00  0.00000000E+00
  0.00000000E+00  0.00000000E+00  0.00000000E+00
  0.00000000E+00  0.00000000E+00  0.00000000E+00
  0.00000000E+00  0.00000000E+00  0.00000000E+00
  0.00000000E+00  0.00000000E+00  0.00000000E+00
  0.00000000E+00  0.00000000E+00  0.00000000E+00
  0.00000000E+00  0.00000000E+00  0.00000000E+00
  0.00000000E+00  0.00000000E+00  0.00000000E+00
  0.00000000E+00  0.00000000E+00  0.00000000E+00
  0.00000000E+00  0.00000000E+00  0.00000000E+00
  0.00000000E+00  0.00000000E+00  0.00000000E+00
  0.00000000E+00  0.00000000E+00  0.00000000E+00
  0.00000000E+00  0.00000000E+00  0.00000000E+00
  0.00000000E+00  0.00000000E+00  0.00000000E+00
  0.00000000E+00  0.00000000E+00  0.00000000E+00
  0.00000000E+00  0.00000000E+00  0.00000000E+00
  0.00000000E+00  0.00000000E+00  0.00000000E+00
  0.00000000E+00  0.00000000E+00  0.00000000E+00
  0.00000000E+00  0.00000000E+00  0.00000000E+00
  0.00000000E+00  0.00000000E+00  0.00000000E+00
  0.00000000E+00  0.00000000E+00  0.00000000E+00
  0.00000000E+00  0.00000000E+00  0.00000000E+00
  0.00000000E+00  0.00000000E+00  0.00000000E+00
  0.00000000E+00  0.00000000E+00  0.00000000E+00
  0.00000000E+00  0.00000000E+00  0.00000000E+00
  0.00000000E+00  0.00000000E+00  0.00000000E+00
  0.00000000E+00  0.00000000E+00  0.00000000E+00
  0.00000000E+00  0.00000000E+00  0.00000000E+00
  0.00000000E+00  0.00000000E+00  0.00000000E+00
  0.00000000E+00  0.00000000E+00  0.00000000E+00
  0.00000000E+00  0.00000000E+00  0.00000000E+00
  0.00000000E+00  0.00000000E+00  0.00000000E+00
  0.00000000E+00  0.00000000E+00  0.00000000E+00
  0.00000000E+00  0.00000000E+00  0.00000000E+00
  0.00000000E+00  0.00000000E+00  0.00000000E+00
  0.00000000E+00  0.00000000E+00  0.00000000E+00
  0.00000000E+00  0.00000000E+00  0.00000000E+00
  0.00000000E+00  0.00000000E+00  0.00000000E+00
  0.00000000E+00  0.00000000E+00  0.00000000E+00
  0.00000000E+00  0.00000000E+00  0.00000000E+00
  0.00000000E+00  0.00000000E+00  0.00000000E+00
  0.00000000E+00  0.00000000E+00  0.00000000E+00
  0.00000000E+00  0.00000000E+00  0.00000000E+00
  0.00000000E+00  0.00000000E+00  0.00000000E+00
  0.00000000E+00  0.00000000E+00  0.00000000E+00
  0.00000000E+00  0.00000000E+00  0.00000000E+00
  0.00000000E+00  0.00000000E+00  0.00000000E+00
  0.00000000E+00  0.00000000E+00  0.00000000E+00
  0.00000000E+00  0.00000000E+00  0.00000000E+00
  0.00000000E+00  0.00000000E+00  0.00000000E+00
  0.00000000E+00  0.00000000E+00  0.00000000E+00
  0.00000000E+00  0.00000000E+00  0.00000000E+00
  0.00000000E+00  0.00000000E+00  0.00000000E+00
  0.00000000E+00  0.00000000E+00  0.00000000E+00
  0.00000000E+00  0.00000000E+00  0.00000000E+00
  0.00000000E+00  0.00000000E+00  0.00000000E+00
  0.00000000E+00  0.00000000E+00  0.00000000E+00
  0.00000000E+00  0.00000000E+00  0.00000000E+00
  0.00000000E+00  0.00000000E+00  0.00000000E+00
  0.00000000E+00  0.00000000E+00  0.00000000E+00
  0.00000000E+00  0.00000000E+00  0.00000000E+00
  0.00000000E+00  0.00000000E+00  0.00000000E+00
  0.00000000E+00  0.00000000E+00  0.00000000E+00
  0.00000000E+00  0.00000000E+00  0.00000000E+00
  0.00000000E+00  0.00000000E+00  0.00000000E+00
  0.00000000E+00  0.00000000E+00  0.00000000E+00
  0.00000000E+00  0.00000000E+00  0.00000000E+00
  0.00000000E+00  0.00000000E+00  0.00000000E+00
  0.00000000E+00  0.00000000E+00  0.00000000E+00
  0.00000000E+00  0.00000000E+00  0.00000000E+00
  0.00000000E+00  0.00000000E+00  0.00000000E+00
  0.00000000E+00  0.00000000E+00  0.00000000E+00
  0.00000000E+00  0.00000000E+00  0.00000000E+00
  0.00000000E+00  0.00000000E+00  0.00000000E+00
  0.00000000E+00  0.00000000E+00  0.00000000E+00
  0.00000000E+00  0.00000000E+00  0.00000000E+00
  0.00000000E+00  0.00000000E+00  0.00000000E+00
  0.00000000E+00  0.00000000E+00  0.00000000E+00
  0.00000000E+00  0.00000000E+00  0.00000000E+00
  0.00000000E+00  0.00000000E+00  0.00000000E+00
  0.00000000E+00  0.00000000E+00  0.00000000E+00
  0.00000000E+00  0.00000000E+00  0.00000000E+00
  0.00000000E+00  0.00000000E+00  0.00000000E+00
  0.00000000E+00  0.00000000E+00  0.00000000E+00
  0.00000000E+00  0.00000000E+00  0.00000000E+00
  0.00000000E+00  0.00000000E+00  0.00000000E+00
  0.00000000E+00  0.00000000E+00  0.00000000E+00
  0.00000000E+00  0.00000000E+00  0.00000000E+00
  0.00000000E+00  0.00000000E+00  0.00000000E+00
  0.00000000E+00  0.00000000E+00  0.00000000E+00
  0.00000000E+00  0.00000000E+00  0.00000000E+00
  0.00000000E+00  0.00000000E+00  0.00000000E+00
  0.00000000E+00  0.00000000E+00  0.00000000E+00
  0.00000000E+00  0.00000000E+00  0.00000000E+00
  0.00000000E+00  0.00000000E+00  0.00000000E+00
  0.00000000E+00  0.00000000E+00  0.00000000E+00
  0.00000000E+00  0.00000000E+00  0.00000000E+00
  0.00000000E+00  0.00000000E+00  0.00000000E+00
  0.00000000E+00  0.00000000E+00  0.00000000E+00
  0.00000000E+00  0.00000000E+00  0.00000000E+00
  0.00000000E+00  0.00000000E+00  0.00000000E+00
  0.00000000E+00  0.00000000E+00  0.00000000E+00
  0.00000000E+00  0.00000000E+00  0.00000000E+00
  0.00000000E+00  0.00000000E+00  0.00000000E+00
  0.00000000E+00  0.00000000E+00  0.00000000E+00
  0.00000000E+00  0.00000000E+00  0.00000000E+00
  0.00000000E+00  0.00000000E+00  0.00000000E+00
  0.00000000E+00  0.00000000E+00  0.00000000E+00
  0.00000000E+00  0.00000000E+00  0.00000000E+00
  0.00000000E+00  0.00000000E+00  0.00000000E+00
  0.00000000E+00  0.00000000E+00  0.00000000E+00
  0.00000000E+00  0.00000000E+00  0.00000000E+00
  0.00000000E+00  0.00000000E+00  0.00000000E+00
  0.00000000E+00  0.00000000E+00  0.00000000E+00
  0.00000000E+00  0.00000000E+00  0.00000000E+00
  0.00000000E+00  0.00000000E+00  0.00000000E+00
  0.00000000E+00  0.00000000E+00  0.00000000E+00
  0.00000000E+00  0.00000000E+00  0.00000000E+00
  0.00000000E+00  0.00000000E+00  0.00000000E+00
  0.00000000E+00  0.00000000E+00  0.00000000E+00
  0.00000000E+00  0.00000000E+00  0.00000000E+00
  0.00000000E+00  0.00000000E+00  0.00000000E+00
  0.00000000E+00  0.00000000E+00  0.00000000E+00
