Sandwich Zr1010 ZrO2 Zr1010             
   1.00000000000000     
     6.4506563916050581    0.0000000000000000    0.0000000000000000
     0.0000000000000000    6.3468526349255665    0.0000000000000000
     0.0000000000000000    0.0000000000000000   55.1531958123181596
   O    Zr
    64    70
Direct
  0.1835029157691643  0.2499999850000023  0.5228291849914234
  0.8164970842308361  0.7499999400000021  0.5228291849914234
  0.8055245041150161  0.2499999850000023  0.5328671950798403
  0.1944754358849805  0.7499999400000021  0.5328671950798403
  0.0490052159953928  0.2499999850000023  0.6309948124217836
  0.9509947840046077  0.7499999400000021  0.6309948124217836
  0.6546568974083331  0.2499999850000023  0.6431960238123227
  0.3453430425916623  0.7499999400000021  0.6431960238123227
  0.9087119222628385  0.2499999850000023  0.8159261164507209
  0.0912880777371624  0.7499999400000021  0.8159261164507209
  0.5095231929469493  0.2499999850000023  0.7801089683008897
  0.4904767470530462  0.7499999400000021  0.7801089683008897
  0.8244142484881827  0.2499999850000023  0.9081389252006100
  0.1755857515118173  0.7499999400000021  0.9081389252006100
  0.3198787587528811  0.2499999850000023  0.9049852661998895
  0.6801211812471144  0.7499999400000021  0.9049852661998895
  0.0010556623456822  0.2499999850000023  0.5814381383075609
 -0.0010556623456822  0.7499999400000021  0.5814381383075609
  0.4492657755630876  0.2499999850000023  0.5526847337673733
  0.5507341644369065  0.7499999400000021  0.5526847337673733
 -0.0160546905594037  0.2499999850000023  0.7171534594312424
  0.0160546905594036  0.7499999400000021  0.7171534594312424
  0.6135656484201149  0.2499999850000023  0.6908669122137303
  0.3864342915798805  0.7499999400000021  0.6908669122137303
  0.0242169803256718  0.2499999850000023  0.8631572994414319
 -0.0242169803256716  0.7499999400000021  0.8631572994414319
  0.4071414301612437  0.2499999850000023  0.8258968606543035
  0.5928585098387523  0.7499999400000021  0.8258968606543035
 -0.0164204524860070  0.2499999850000023  0.9884409269485648
  0.0164204524860069  0.7499999400000021  0.9884409269485648
  0.6035992861536469  0.2499999850000023  0.9611195227694187
  0.3964006538463558  0.7499999400000021  0.9611195227694187
  0.2992936528097210 -0.0396353204087559  0.4913192241884895
  0.2992936528097210  0.5396352904087530  0.4913192241884895
  0.7007062721902826  0.0396353204087560  0.4913192241884895
  0.7007062721902826  0.4603646495912415  0.4913192241884895
  0.1838650355133432  0.0621442111863379  0.6743406781964754
  0.1838650355133433  0.4378557588136600  0.6743406781964754
  0.8161348894866615  0.9378557888136616  0.6743406781964754
  0.8161348894866615  0.5621441811863359  0.6743406781964754
  0.1843389358157825  0.0230693585414069  0.7727858670390846
  0.1843389358157825  0.4769306114585906  0.7727858670390846
  0.8156609891842210 -0.0230693585414069  0.7727858670390846
  0.8156609891842210  0.5230693285414043  0.7727858670390846
  0.1796529127067512  0.0619773265046573  0.9488215099092017
  0.1796529127067512  0.4380226434953400  0.9488215099092017
  0.8203470122932522  0.9380226734953426  0.9488215099092017
  0.8203470122932522  0.5619772965046549  0.9488215099092017
  0.3115081864804052 -0.0243402332894216  0.5993785046633142
  0.3115081864804052  0.5243402032894184  0.5993785046633142
  0.6884917385195999  0.0243402332894216  0.5993785046633142
  0.6884917385195999  0.4756597367105758  0.5993785046633142
  0.3076289505539644  0.0312955263552969  0.7292827608685840
  0.3076289505539643  0.4687044436447008  0.7292827608685840
  0.6923709744460388 -0.0312955263552970  0.7292827608685840
  0.6923709744460388  0.5312954963552946  0.7292827608685840
  0.3080774762015523 -0.0357440820748118  0.8686076052214015
  0.3080774762015523  0.5357440520748089  0.8686076052214015
  0.6919224487984528  0.0357440820748118  0.8686076052214015
  0.6919224487984528  0.4642558879251854  0.8686076052214015
  0.3079241535556020  0.0394835181008118  0.0042962780376804
  0.3079241535556020  0.4605164518991852  0.0042962780376804
  0.6920757714444026  0.9605164818991883  0.0042962780376804
  0.6920757714444026  0.5394834881008093  0.0042962780376804
  0.1173332381731837  0.7499998810000008  0.0624204526003891
  0.8826624258268139  0.2499999850000023  0.0624204526003891
  0.6269564216859405  0.7499998810000008  0.0819135344624462
  0.3730392273140583  0.2499999850000023  0.0819135384624465
  0.1396052480544956  0.7499998810000008  0.1102798505006821
  0.8603904159455008  0.2499999850000023  0.1102798505006821
  0.6350387877013643  0.7499998810000008  0.1344670103385208
  0.3649568612986344  0.2499999850000023  0.1344670103385208
  0.1433620472827222  0.7499998810000008  0.1595748169496125
  0.8566336167172747  0.2499999850000023  0.1595748169496125
  0.6404072059694624  0.7499998810000008  0.1841616271902753
  0.3595884430305359  0.2499999850000023  0.1841616271902753
  0.1357681725341509  0.7499998810000008  0.2094658961920243
  0.8642274914658461  0.2499999850000023  0.2094658961920243
  0.6393056149750065  0.7499998810000008  0.2335859302233106
  0.3606900340249928  0.2499999850000023  0.2335859302233106
  0.1422886241435762  0.7499998810000008  0.2589125171588495
  0.8577070398564202  0.2499999850000023  0.2589125171588495
  0.6485781687153848  0.7499998810000008  0.2834989460635771
  0.3514174802846141  0.2499999850000023  0.2834989460635771
  0.1306265297058546  0.7499998810000008  0.3094041357056052
  0.8693691342941418  0.2499999850000023  0.3094041357056052
  0.6623857178989289  0.7499998810000008  0.3319539096281934
  0.3376099311010695  0.2499999850000023  0.3319539096281934
  0.1128482836051850  0.7499998810000008  0.3648701382723804
  0.8871473803948116  0.2499999850000023  0.3648701382723804
  0.6116806962224589  0.7499998810000008  0.3788817056536922
  0.3883149527775419  0.2499999850000023  0.3788817056536922
  0.3254495422318047  0.7499998810000008  0.4175305974838502
  0.6745461217681923  0.2499999850000023  0.4175305974838502
  0.8515524404524732  0.7499998810000008  0.4198811007921670
  0.1484432085475266  0.2499999850000023  0.4198811007921670
  0.1006585272553483  0.7499998810000008  0.4645506295746006
  0.8993371367446480  0.2499999850000023  0.4645506295746006
  0.0000000000000000  0.0000000000000000  0.5138653334099085
  0.0000000000000000  0.4999999699999975  0.5138653334099085
  0.4999999699999975  0.0000000000000000  0.4614255398230396
  0.4999999699999975  0.4999999699999975  0.4614255398230396
  0.0000000000000000  0.0000000000000000  0.6081535839514013
  0.0000000000000000  0.4999999699999975  0.6081535839514013
  0.4999999699999975  0.0000000000000000  0.6298653023932226
  0.4999999699999975  0.4999999699999975  0.6298653023932155
  0.0000000000000000  0.0000000000000000  0.7398024345371773
  0.0000000000000000  0.4999999699999975  0.7398024345371773
  0.4999999699999975  0.0000000000000000  0.7586932760273628
  0.4999999699999975  0.4999999699999975  0.7586932760273628
  0.0000000000000000  0.0000000000000000  0.8841218921805672
  0.0000000000000000  0.4999999699999975  0.8841218921805672
  0.4999999699999975  0.0000000000000000  0.8964807690283333
  0.4999999699999975  0.4999999699999975  0.8964807690283333
  0.0000000000000000  0.0000000000000000  0.0118870859713166
  0.0000000000000000  0.4999999699999975  0.0118870859713166
  0.4999999699999975  0.0000000000000000  0.0323836003539672
  0.4999999699999975  0.4999999699999975  0.0323836003539672
  0.5014167692641045  0.2499999850000023  0.5164956353155569
  0.3048335966963719  0.7499999400000021  0.5726824338499772
  0.6951663283036397  0.2499999850000023  0.5726824338499772
  0.4985831557359004  0.7499999400000021  0.5164956353155569
  0.3351649285132227  0.2499999850000023  0.7001541239152711
  0.1034004980400279  0.7499999400000021  0.6722474447030744
  0.8965994269599786  0.2499999850000023  0.6722474447030744
  0.6648349964867820  0.7499999400000021  0.7001541239152711
  0.1897661996192092  0.2499999850000023  0.7974495173170664
  0.3110048925517966  0.7499999400000021  0.8405192172507393
  0.6889950324482093  0.2499999850000023  0.8405192172507393
  0.8102337253807964  0.7499999400000021  0.7974495173170664
  0.3310816477800896  0.2499999850000023  0.9730274003764232
  0.1013905889054728  0.7499999400000021  0.9471340885658813
  0.8986093360945315  0.2499999850000023  0.9471340885658812
  0.6689182772199154  0.7499999400000021  0.9730274003764232
 
  0.00000000E+00  0.00000000E+00  0.00000000E+00
  0.00000000E+00  0.00000000E+00  0.00000000E+00
  0.00000000E+00  0.00000000E+00  0.00000000E+00
  0.00000000E+00  0.00000000E+00  0.00000000E+00
  0.00000000E+00  0.00000000E+00  0.00000000E+00
  0.00000000E+00  0.00000000E+00  0.00000000E+00
  0.00000000E+00  0.00000000E+00  0.00000000E+00
  0.00000000E+00  0.00000000E+00  0.00000000E+00
  0.00000000E+00  0.00000000E+00  0.00000000E+00
  0.00000000E+00  0.00000000E+00  0.00000000E+00
  0.00000000E+00  0.00000000E+00  0.00000000E+00
  0.00000000E+00  0.00000000E+00  0.00000000E+00
  0.00000000E+00  0.00000000E+00  0.00000000E+00
  0.00000000E+00  0.00000000E+00  0.00000000E+00
  0.00000000E+00  0.00000000E+00  0.00000000E+00
  0.00000000E+00  0.00000000E+00  0.00000000E+00
  0.00000000E+00  0.00000000E+00  0.00000000E+00
  0.00000000E+00  0.00000000E+00  0.00000000E+00
  0.00000000E+00  0.00000000E+00  0.00000000E+00
  0.00000000E+00  0.00000000E+00  0.00000000E+00
  0.00000000E+00  0.00000000E+00  0.00000000E+00
  0.00000000E+00  0.00000000E+00  0.00000000E+00
  0.00000000E+00  0.00000000E+00  0.00000000E+00
  0.00000000E+00  0.00000000E+00  0.00000000E+00
  0.00000000E+00  0.00000000E+00  0.00000000E+00
  0.00000000E+00  0.00000000E+00  0.00000000E+00
  0.00000000E+00  0.00000000E+00  0.00000000E+00
  0.00000000E+00  0.00000000E+00  0.00000000E+00
  0.00000000E+00  0.00000000E+00  0.00000000E+00
  0.00000000E+00  0.00000000E+00  0.00000000E+00
  0.00000000E+00  0.00000000E+00  0.00000000E+00
  0.00000000E+00  0.00000000E+00  0.00000000E+00
  0.00000000E+00  0.00000000E+00  0.00000000E+00
  0.00000000E+00  0.00000000E+00  0.00000000E+00
  0.00000000E+00  0.00000000E+00  0.00000000E+00
  0.00000000E+00  0.00000000E+00  0.00000000E+00
  0.00000000E+00  0.00000000E+00  0.00000000E+00
  0.00000000E+00  0.00000000E+00  0.00000000E+00
  0.00000000E+00  0.00000000E+00  0.00000000E+00
  0.00000000E+00  0.00000000E+00  0.00000000E+00
  0.00000000E+00  0.00000000E+00  0.00000000E+00
  0.00000000E+00  0.00000000E+00  0.00000000E+00
  0.00000000E+00  0.00000000E+00  0.00000000E+00
  0.00000000E+00  0.00000000E+00  0.00000000E+00
  0.00000000E+00  0.00000000E+00  0.00000000E+00
  0.00000000E+00  0.00000000E+00  0.00000000E+00
  0.00000000E+00  0.00000000E+00  0.00000000E+00
  0.00000000E+00  0.00000000E+00  0.00000000E+00
  0.00000000E+00  0.00000000E+00  0.00000000E+00
  0.00000000E+00  0.00000000E+00  0.00000000E+00
  0.00000000E+00  0.00000000E+00  0.00000000E+00
  0.00000000E+00  0.00000000E+00  0.00000000E+00
  0.00000000E+00  0.00000000E+00  0.00000000E+00
  0.00000000E+00  0.00000000E+00  0.00000000E+00
  0.00000000E+00  0.00000000E+00  0.00000000E+00
  0.00000000E+00  0.00000000E+00  0.00000000E+00
  0.00000000E+00  0.00000000E+00  0.00000000E+00
  0.00000000E+00  0.00000000E+00  0.00000000E+00
  0.00000000E+00  0.00000000E+00  0.00000000E+00
  0.00000000E+00  0.00000000E+00  0.00000000E+00
  0.00000000E+00  0.00000000E+00  0.00000000E+00
  0.00000000E+00  0.00000000E+00  0.00000000E+00
  0.00000000E+00  0.00000000E+00  0.00000000E+00
  0.00000000E+00  0.00000000E+00  0.00000000E+00
  0.00000000E+00  0.00000000E+00  0.00000000E+00
  0.00000000E+00  0.00000000E+00  0.00000000E+00
  0.00000000E+00  0.00000000E+00  0.00000000E+00
  0.00000000E+00  0.00000000E+00  0.00000000E+00
  0.00000000E+00  0.00000000E+00  0.00000000E+00
  0.00000000E+00  0.00000000E+00  0.00000000E+00
  0.00000000E+00  0.00000000E+00  0.00000000E+00
  0.00000000E+00  0.00000000E+00  0.00000000E+00
  0.00000000E+00  0.00000000E+00  0.00000000E+00
  0.00000000E+00  0.00000000E+00  0.00000000E+00
  0.00000000E+00  0.00000000E+00  0.00000000E+00
  0.00000000E+00  0.00000000E+00  0.00000000E+00
  0.00000000E+00  0.00000000E+00  0.00000000E+00
  0.00000000E+00  0.00000000E+00  0.00000000E+00
  0.00000000E+00  0.00000000E+00  0.00000000E+00
  0.00000000E+00  0.00000000E+00  0.00000000E+00
  0.00000000E+00  0.00000000E+00  0.00000000E+00
  0.00000000E+00  0.00000000E+00  0.00000000E+00
  0.00000000E+00  0.00000000E+00  0.00000000E+00
  0.00000000E+00  0.00000000E+00  0.00000000E+00
  0.00000000E+00  0.00000000E+00  0.00000000E+00
  0.00000000E+00  0.00000000E+00  0.00000000E+00
  0.00000000E+00  0.00000000E+00  0.00000000E+00
  0.00000000E+00  0.00000000E+00  0.00000000E+00
  0.00000000E+00  0.00000000E+00  0.00000000E+00
  0.00000000E+00  0.00000000E+00  0.00000000E+00
  0.00000000E+00  0.00000000E+00  0.00000000E+00
  0.00000000E+00  0.00000000E+00  0.00000000E+00
  0.00000000E+00  0.00000000E+00  0.00000000E+00
  0.00000000E+00  0.00000000E+00  0.00000000E+00
  0.00000000E+00  0.00000000E+00  0.00000000E+00
  0.00000000E+00  0.00000000E+00  0.00000000E+00
  0.00000000E+00  0.00000000E+00  0.00000000E+00
  0.00000000E+00  0.00000000E+00  0.00000000E+00
  0.00000000E+00  0.00000000E+00  0.00000000E+00
  0.00000000E+00  0.00000000E+00  0.00000000E+00
  0.00000000E+00  0.00000000E+00  0.00000000E+00
  0.00000000E+00  0.00000000E+00  0.00000000E+00
  0.00000000E+00  0.00000000E+00  0.00000000E+00
  0.00000000E+00  0.00000000E+00  0.00000000E+00
  0.00000000E+00  0.00000000E+00  0.00000000E+00
  0.00000000E+00  0.00000000E+00  0.00000000E+00
  0.00000000E+00  0.00000000E+00  0.00000000E+00
  0.00000000E+00  0.00000000E+00  0.00000000E+00
  0.00000000E+00  0.00000000E+00  0.00000000E+00
  0.00000000E+00  0.00000000E+00  0.00000000E+00
  0.00000000E+00  0.00000000E+00  0.00000000E+00
  0.00000000E+00  0.00000000E+00  0.00000000E+00
  0.00000000E+00  0.00000000E+00  0.00000000E+00
  0.00000000E+00  0.00000000E+00  0.00000000E+00
  0.00000000E+00  0.00000000E+00  0.00000000E+00
  0.00000000E+00  0.00000000E+00  0.00000000E+00
  0.00000000E+00  0.00000000E+00  0.00000000E+00
  0.00000000E+00  0.00000000E+00  0.00000000E+00
  0.00000000E+00  0.00000000E+00  0.00000000E+00
  0.00000000E+00  0.00000000E+00  0.00000000E+00
  0.00000000E+00  0.00000000E+00  0.00000000E+00
  0.00000000E+00  0.00000000E+00  0.00000000E+00
  0.00000000E+00  0.00000000E+00  0.00000000E+00
  0.00000000E+00  0.00000000E+00  0.00000000E+00
  0.00000000E+00  0.00000000E+00  0.00000000E+00
  0.00000000E+00  0.00000000E+00  0.00000000E+00
  0.00000000E+00  0.00000000E+00  0.00000000E+00
  0.00000000E+00  0.00000000E+00  0.00000000E+00
  0.00000000E+00  0.00000000E+00  0.00000000E+00
  0.00000000E+00  0.00000000E+00  0.00000000E+00
  0.00000000E+00  0.00000000E+00  0.00000000E+00
  0.00000000E+00  0.00000000E+00  0.00000000E+00
  0.00000000E+00  0.00000000E+00  0.00000000E+00
  0.00000000E+00  0.00000000E+00  0.00000000E+00
